 K-Ge-H                                 
   1.00000000000000     
     5.2165279534003908   -0.2094736296602220   -0.0276757739920255
    -2.7896732927787196    4.4129090270010192    0.0276758608492937
    -0.0190050572599139    0.0109732655993090    4.8910185220485953
   K    Ge   H 
     2     3    18
Direct
  0.6668530046060835  0.3331469954240505  0.0020427748731230
  0.3291888154192461  0.6708111845564937  0.7957812283541760
  0.6666156424655596  0.3333843576040589  0.1934867952680072
  0.6670342965687257  0.3329657033537645  0.6891985849988512
  0.3322801499894952  0.6677198501053860  0.3893792133451139
  0.7937822159589394  0.0056777872150927  0.0050082767904228
  0.9810611060285107  0.7756861844799257  0.0055627037457448
  0.2045063180879195  0.1933722973226315  0.0045427407105194
  0.9943222127875790  0.2062177840396043  0.0050082768278527
  0.2243138155177719  0.0189388939723143  0.0055627037010362
  0.8066277026757698  0.7954936819125709  0.0045427407038179
  0.2325094874344165  0.7674905125721871  0.5314887086422068
  0.2185976941497617  0.4460747727676025  0.5266396550142182
  0.5539252272489898  0.7814023058676766  0.5266396548170266
  0.8815335354814725  0.1184664645218386  0.5340745056709874
 -0.0342568261175101  0.8353879403107937  0.5329223745898733
  0.1646120596859588  0.0342568261093250  0.5329223746170041
  0.6668690636659368  0.3331309361944781  0.6869623706045263
  0.6667206869496348  0.3332793131794547  0.8817948443300342
  0.3331642097907203  0.6668357901792100  0.9525883722368252
  0.3340272312423509  0.6659727686667992  0.2206629939887118
  0.9969750050728823  0.0030249949272729  0.9979247939592119
  0.9854373508211038  0.0145626491861651  0.5181265802169527
 
  0.00000000E+00  0.00000000E+00  0.00000000E+00
  0.00000000E+00  0.00000000E+00  0.00000000E+00
  0.00000000E+00  0.00000000E+00  0.00000000E+00
  0.00000000E+00  0.00000000E+00  0.00000000E+00
  0.00000000E+00  0.00000000E+00  0.00000000E+00
  0.00000000E+00  0.00000000E+00  0.00000000E+00
  0.00000000E+00  0.00000000E+00  0.00000000E+00
  0.00000000E+00  0.00000000E+00  0.00000000E+00
  0.00000000E+00  0.00000000E+00  0.00000000E+00
  0.00000000E+00  0.00000000E+00  0.00000000E+00
  0.00000000E+00  0.00000000E+00  0.00000000E+00
  0.00000000E+00  0.00000000E+00  0.00000000E+00
  0.00000000E+00  0.00000000E+00  0.00000000E+00
  0.00000000E+00  0.00000000E+00  0.00000000E+00
  0.00000000E+00  0.00000000E+00  0.00000000E+00
  0.00000000E+00  0.00000000E+00  0.00000000E+00
  0.00000000E+00  0.00000000E+00  0.00000000E+00
  0.00000000E+00  0.00000000E+00  0.00000000E+00
  0.00000000E+00  0.00000000E+00  0.00000000E+00
  0.00000000E+00  0.00000000E+00  0.00000000E+00
  0.00000000E+00  0.00000000E+00  0.00000000E+00
  0.00000000E+00  0.00000000E+00  0.00000000E+00
  0.00000000E+00  0.00000000E+00  0.00000000E+00
