LaH10
1.0
        4.8123998642         0.0000000000         0.0000000000
        0.0000000000         4.8123998642         0.0000000000
        0.0000000000         0.0000000000         4.8123998642
   La    H
    4   40
Direct
     0.500000000         0.000000000         0.000000000
     0.000000000         0.500000000         0.000000000
     0.000000000         0.000000000         0.500000000
     0.500000000         0.500000000         0.500000000
     0.250000000         0.750000000         0.750000000
     0.750000000         0.250000000         0.250000000
     0.750000000         0.250000000         0.750000000
     0.250000000         0.750000000         0.250000000
     0.750000000         0.750000000         0.250000000
     0.250000000         0.250000000         0.750000000
     0.250000000         0.250000000         0.250000000
     0.750000000         0.750000000         0.750000000
     0.379480004         0.379480004         0.879480004
     0.620519996         0.620519996         0.120519996
     0.620519996         0.620519996         0.879480004
     0.379480004         0.379480004         0.120519996
     0.620519996         0.379480004         0.120519996
     0.379480004         0.620519996         0.879480004
     0.379480004         0.620519996         0.120519996
     0.620519996         0.379480004         0.879480004
     0.879480004         0.379480004         0.379480004
     0.120519996         0.620519996         0.620519996
     0.879480004         0.620519996         0.620519996
     0.120519996         0.379480004         0.379480004
     0.120519996         0.620519996         0.379480004
     0.879480004         0.379480004         0.620519996
     0.120519996         0.379480004         0.620519996
     0.879480004         0.620519996         0.379480004
     0.379480004         0.879480004         0.379480004
     0.620519996         0.120519996         0.620519996
     0.620519996         0.879480004         0.620519996
     0.379480004         0.120519996         0.379480004
     0.379480004         0.120519996         0.620519996
     0.620519996         0.879480004         0.379480004
     0.620519996         0.120519996         0.379480004
     0.379480004         0.879480004         0.620519996
     0.879480004         0.879480004         0.879480004
     0.120519996         0.120519996         0.120519996
     0.879480004         0.120519996         0.120519996
     0.120519996         0.879480004         0.879480004
     0.120519996         0.120519996         0.879480004
     0.879480004         0.879480004         0.120519996
     0.120519996         0.879480004         0.120519996
     0.879480004         0.120519996         0.879480004
