SYSTEM = scf
PREC = Accurate
ENCUT = 1100
EDIFF = 1e-7
EDIFFG = -0.01
KSPACING = 0.18
ISMEAR = 0
SIGMA = 0.05
POTIM = 0.01
ISTART = 0
LWAVE = FALSE
LCHARG = FALSE
NPAR = 4
NELM = 300