# DOS input for VASP
# \nNote that VASP uses the FIRST occurence of a keyword
 #SYSTEM = NaB3

    PREC = Accurate
   ENCUT = 850
  IBRION = -1
     NSW = 0
    ISIF = 0
  NELMIN = 2
   EDIFF = 1.0e-08
 VOSKOWN = 1
  NWRITE = 1
    NELM = 60
    ALGO = Normal (blocked Davidson)
  #NBANDS = 64
   ISPIN = 1
  INIWAV = 1
  ISTART = 1
  ICHARG = 11
   LWAVE = .FALSE.
  LCHARG = .FALSE.
 ADDGRID = .FALSE.
LHYPERFINE = .FALSE.
  ISMEAR = -5
   SIGMA = 0.01
   LREAL = .FALSE.
  #RWIGS = 1.54 0.82
   NEDOS = 1201
# Default options for parallel
   NPAR = 4
   LORBIT = 11
