&CONTROL
 calculation='vc-relax',         
 restart_mode='from_scratch',    
 prefix='Ca1H6',                    
 pseudo_dir='/work/home/mayuan/code/my_script/scripts_tests/out2/200.0/pp',                
 verbosity = 'high',             
 outdir='./tmp',                 
 forc_conv_thr = 1.0d-5,         
 etot_conv_thr = 1.0d-7,         
 wf_collect = .true.,            
 tstress = .true.,               
 tprnfor = .true.,               
 nstep = 2000,                    
/
&SYSTEM
 ibrav=0,                        
 nat=7,                         
 ntyp=2,                        
 occupations = 'smearing',       
 smearing = 'gauss',             
  degauss = 0.005                 
 ecutwfc = 60,                   
 ecutrho = 720,                  
/
&ELECTRONS
 diagonalization = 'david'          
 conv_thr = 1.0d-8,              
 mixing_beta = 0.7,              
/
&ions                            
 ion_dynamics = 'bfgs',          
/
&cell                            
 cell_dynamics = 'bfgs',         
 press = 2000.0,                     
 press_conv_thr = 0.01,          
/
ATOMIC_SPECIES                   
 Ca     40.078      ca_pbe_v1.uspp.F.UPF                               
 H      1.00794     h_pbe_v1.uspp.F.UPF                                
CELL_PARAMETERS {angstrom}        
           -1.75049996375             1.75049996375             1.75049996375 
            1.75049996375            -1.75049996375             1.75049996375 
            1.75049996375             1.75049996375       -1.7504999637499998 
ATOMIC_POSITIONS (crystal)       
Ca    0.0                            0.0                            0.0                            
H     0.49999999999999994            0.7499999999999999             0.25                           
H     0.5                            0.25                           0.7499999999999999             
H     0.25                           0.5                            0.7499999999999999             
H     0.7499999999999999             0.49999999999999994            0.25                           
H     0.7499999999999999             0.24999999999999978            0.5                            
H     0.24999999999999978            0.7499999999999999             0.5                            
K_POINTS {automatic}             
 32 32 32 0 0 0                  
