SYSTEM = OPT
PREC = Accurate 
ENCUT = 700
EDIFF = 1e-7
EDIFFG = -0.01
KSPACING = 0.25
IBRION = 2
ISIF = 3
NSW = 300
ISMEAR = 0
SIGMA = 0.01
POTIM = 0.01
ISTART = 0
LWAVE = FALSE
LCHARG = FALSE
PSTRESS = x
NPAR = 4
