SYSTEM = LaYCeThBeH
ENCUT = 537.5

EDIFF = 1E-5
ISMEAR = 0
SIGMA = 0.05

NPAR=2
KPAR=4
ISYM=0

LREAL = Auto
PREC = Normal

LWAVE  = .FALSE.
LCHARG = .FALSE.

NELM = 200
NBANDS = 576

AMIX = 0.2
BMIX = 0.00001

IWAVPR=11

