SYSTEM = mysystem
PREC = Accurate

ENCUT = 420
IBRION = 2
ISIF = 3
NSW = 100
ISMEAR = 0
SIGMA = 0.050
POTIM = 0.250
ISTART = 0
LCHARG = FALSE
LWAVE = FALSE

#Crude optimisation
EDIFF = 1e-5
EDIFFG = -0.1
KSPACING = 0.3
#ALGO = Fast
