 Y Al  H 
 1.0000000000000000
     3.6659999999999999    0.0000000000000000    0.0000000000000000
     0.0000000000000000    2.6880000000000002    0.0000000000000000
     0.0000000000000000    0.0000000000000000   13.2255900000000004
 Y   Al  H  
   2   8  26
Cartesian
  0.0000000000000000  1.3439999999999999  6.6471815339999996
  1.8330000000000000  0.0000000000000000  0.0343865339999999
  0.0000000000000000  1.3439999999999999  3.9729672360000001
  1.8330000000000000  0.0000000000000000 10.5857622360000008
  0.0000000000000000  1.3439999999999999 11.6874538830000017
  1.8330000000000000  0.0000000000000000  5.0746588829999997
  0.0000000000000000  1.3439999999999999  1.3662034470000002
  1.8330000000000000  0.0000000000000000  7.9789984470000013
  0.0000000000000000  1.3439999999999999  9.4285231110000005
  1.8330000000000000  0.0000000000000000  2.8157281109999999
  0.0000000000000000  0.0000000000000000  5.0005955789999996
  1.8330000000000000  1.3440000000000001 11.6133905790000007
  0.9062352000000000  0.0000000000000000  9.2922995339999996
  2.7597648000000001  0.0000000000000000  9.2922995339999996
  2.7392352000000000  1.3440000000000001  2.6795045340000003
  0.9267648000000001  1.3440000000000001  2.6795045340000003
  2.5394382000000002  0.0000000000000000  6.4567330380000003
  1.1265617999999999  0.0000000000000000  6.4567330380000003
  0.7064382000000001  1.3440000000000001 13.0695280379999996
  2.9595617999999995  1.3440000000000001 13.0695280379999996
  0.8563775999999999  0.0000000000000000  1.6373280420000000
  2.8096223999999999  0.0000000000000000  1.6373280420000000
  2.6893776000000003  1.3440000000000001  8.2501230420000002
  0.9766224000000001  1.3440000000000001  8.2501230420000002
  2.8631460000000000  0.0000000000000000 11.8223549010000006
  0.8028539999999998  0.0000000000000000 11.8223549010000006
  1.0301460000000000  1.3440000000000001  5.2095599010000004
  2.6358539999999997  1.3440000000000001  5.2095599010000004
  0.0000000000000000  0.0000000000000000 10.5566659380000001
  1.8330000000000000  1.3440000000000001  3.9438709379999994
  0.0000000000000000  0.0000000000000000  7.9499021489999997
  1.8330000000000000  1.3440000000000001  1.3371071490000004
  0.0000000000000000  0.0000000000000000  0.2869953030000000
  1.8330000000000000  1.3440000000000001  6.8997903030000005
  0.0000000000000000  0.0000000000000000  3.1199166809999999
  1.8330000000000000  1.3440000000000001  9.7327116809999996
