Al  H 
 1.0000000000000000
     2.3567200000000001    0.0000000000000000    0.0000000000000000
    -1.1783599999999994    2.0409793896068624    0.0000000000000000
     0.0000000000000000    0.0000000000000000    3.7660000000000000
 Al  H  
   2   1
Cartesian
 -0.0001178359999995  1.3607209590508951  0.9814195999999999
  1.1782421640000005  0.6802584305559674  2.7845804000000003
  0.0000000000000000  0.0000000000000000  0.0000000000000000
