 Y 
 1.0000000000000000
     8.1115399999999998    0.0000000000000000    0.0000000000000000
     0.0000000000000000    2.5275799999999999    0.0000000000000000
     4.0851240541298717    0.0000000000000000    2.2590881452412432
 Y  
   4
Cartesian
  1.0212810135324679  0.9892948120000000  0.5647720363103108
  3.0638430405974040  1.5382851880000001  1.6943161089309324
  5.0770510135324676  2.2530848120000000  0.5647720363103108
  7.1196130405974039  0.2744951879999999  1.6943161089309324
