Al  H 
 1.0000000000000000
     6.7499000000000002    0.0000000000000000    0.0000000000000000
     0.0000000000000000    4.3718100000000000    0.0000000000000000
     0.8065443758994960    0.0000000000000000    2.6677434602496715
 Al  H  
   6  20
Cartesian
  1.6222488566747870  0.0000000000000000  1.8159329733919516
  5.9341955192247084  0.0000000000000000  0.8518104868577200
  4.9971988566747880  2.1859050000000000  1.8159329733919516
  2.5592455192247092  2.1859050000000000  0.8518104868577200
  0.0000000000000000  2.1859050000000000  0.0000000000000000
  3.3749500000000001  0.0000000000000000  0.0000000000000000
  2.1535656784843487  1.4138433540000002  2.1779457609478317
  5.4028786974151473  1.4138433540000002  0.4897976993018397
  5.4028786974151473  2.9579666460000000  0.4897976993018397
  2.1535656784843487  2.9579666460000000  2.1779457609478317
  5.5285156784843492  3.5997483539999999  2.1779457609478317
  2.0279286974151471  3.5997483539999999  0.4897976993018397
  2.0279286974151471  0.7720616459999999  0.4897976993018397
  5.5285156784843492  0.7720616459999999  2.1779457609478317
  3.9531623959160629  1.4064112769999999  0.6778736132494415
  3.6032819799834339  1.4064112769999999  1.9898698470002301
  3.6032819799834339  2.9653987229999998  1.9898698470002301
  3.9531623959160629  2.9653987229999998  0.6778736132494415
  0.5782123959160624  3.5923162770000001  0.6778736132494415
  6.9782319799834331  3.5923162770000001  1.9898698470002301
  6.9782319799834331  0.7794937230000001  1.9898698470002301
  0.5782123959160624  0.7794937230000001  0.6778736132494415
  3.0965576614249519  0.0000000000000000  1.6310583515966490
  4.4598867144745453  0.0000000000000000  1.0366851086530224
  6.4715076614249512  2.1859050000000000  1.6310583515966490
  1.0849367144745443  2.1859050000000000  1.0366851086530224
