Al 
 1.0000000000000000
     3.2485200000000001    0.0000000000000000    0.0000000000000000
     0.0000000000000000    3.2485200000000001    0.0000000000000000
     0.0000000000000000    0.0000000000000000    3.2485200000000001
 Al 
   4
Cartesian
  1.6242600000000000  1.6242600000000000  1.6242600000000000
  1.6242600000000000  0.0000000000000000  0.0000000000000000
  0.0000000000000000  1.6242600000000000  0.0000000000000000
  0.0000000000000000  0.0000000000000000  1.6242600000000000
