 Y  H 
 1.0000000000000000
     2.7595000000000001    0.0000000000000000    0.0000000000000000
    -1.3797499999999994    2.3897971017431585    0.0000000000000000
     0.0000000000000000    0.0000000000000000    5.3220000000000001
 Y   H  
   2   6
Cartesian
 -0.0001379749999995  1.5932777277321637  3.9915000000000003
  1.3796120250000006  0.7965193740109947  1.3305000000000000
  0.0000000000000000  0.0000000000000000  0.0000000000000000
  0.0000000000000000  0.0000000000000000  2.6610000000000000
 -0.0001379749999995  1.5932777277321637  0.4427904000000000
  1.3796120250000006  0.7965193740109947  3.1037903999999998
  1.3796120250000004  0.7965193740109948  4.8792096000000003
  0.0000000000000003  1.5930387480219896  2.2182096000000002
