 H 
 1.0000000000000000
     3.2894399999999999    0.0000000000000000    0.0000000000000000
    -1.6447199999999991    2.8487386042246841    0.0000000000000000
     0.0000000000000000    0.0000000000000000    3.6556999999999999
 H  
  21
Cartesian
  0.9185761200000003  1.3688188993299606  0.4244267700000000
  1.6447200000000002  0.1111008055647625  0.4244267700000000
  2.3708638800000004  1.3688188993299608  0.4244267700000000
  0.7261438800000003  1.4799197048947232  3.2312732300000002
  0.0000000000000008  2.7376377986599216  3.2312732300000002
 -0.7261438799999999  1.4799197048947235  3.2312732300000002
  2.5632961200000000  0.4192393645883993  2.8615601033333329
  1.6447200000000006  2.0102598750478853  2.8615601033333329
  0.7261438800000002  0.4192393645883993  2.8615601033333329
  2.3708638800000004  0.5303401701531618  2.0127065633333334
  1.6447200000000006  1.7880582639183604  2.0127065633333334
  0.9185761199999998  0.5303401701531619  2.0127065633333334
 -0.7261438799999994  2.3183984340715220  1.6429934366666665
  0.0000000000000005  1.0606803403063236  1.6429934366666665
  0.7261438800000010  2.3183984340715225  1.6429934366666665
 -0.9185761199999992  2.4294992396362849  0.7941398966666666
  0.0000000000000003  0.8384787291767987  0.7941398966666666
  0.9185761200000004  2.4294992396362849  0.7941398966666666
  0.0000000000000000  0.0000000000000000  0.0000000000000000
  0.0000000000000006  1.8991590694831226  2.4371333333333332
  1.6447200000000002  0.9495795347415613  1.2185666666666666
