 Y  H 
 1.0000000000000000
     7.0270000000000001    0.0000000000000000    0.0000000000000000
     0.2292195133904978    3.1637070684058322    0.0000000000000000
     0.3749883392591545   -1.1610164725484515    2.8867595147311480
 Y   H  
   3  17
Cartesian
  6.5218941033100295  1.3181062842085571  2.3651220704192295
  2.0036221585936440  2.8205567251028811  0.1656999961455679
  4.1742220714372200  0.4856712170915104  1.2600705281801461
  1.1250174451335793  2.2731698514020615  1.8319375880483866
  1.1291200731722668  0.2944188647192374  1.8622485629530636
  0.8062758500057046  1.3267730694141464  0.1882167203604708
  6.9904581120434077  0.6286790687295621  0.2217031307313521
  0.4868868934716842  1.9834583311216387  0.7571970207139801
  1.2540328950509931  1.0474826853956989  1.5048677350293473
  4.0080150581042435  2.0667579581523179  0.2370029561594273
  2.4793601778982657  0.0104506450922682  1.9673266092892774
  2.4278075635336083  1.2475220981419335  1.1105363853170727
  3.3009174148340428  2.1281186347398653  1.4185536255388862
  3.3432255322135349 -0.0195710099329554  2.8529844284087935
  4.3135184648148508  2.0933165132347105  2.3137377510570150
  5.2541357025050131  1.9845527150756370  1.1021647827243521
  5.3468352524513749 -0.1809524635274279  2.5478539477017113
  6.9042773399836044 -0.2928435552146557  1.1379606007070184
  6.0017062281410727  0.9220886017889727  0.5383806494973591
  5.9670752420810942 -0.2472334813813538  1.4454004890258856
