 Y Al  H 
 1.0000000000000000
     8.3454999999999995    0.0000000000000000    0.0000000000000000
     0.0000000000000000    3.3439999999999999    0.0000000000000000
    -1.8215573517476586    0.0000000000000000    3.6809479505005309
 Y   Al  H  
   2   6  18
Cartesian
 -0.9107786758738293  0.0000000000000000  1.8404739752502655
  3.2619713241261703  1.6719999999999999  1.8404739752502655
  5.0518768966198095  0.0000000000000000  2.7279505261159436
  1.4720657516325311  0.0000000000000000  0.9529974243845876
  0.8791268966198100  1.6719999999999999  2.7279505261159436
  5.6448157516325308  1.6719999999999999  0.9529974243845876
  0.0000000000000000  1.6719999999999999  0.0000000000000000
  4.1727499999999997  0.0000000000000000  0.0000000000000000
  6.9672727564336911  0.8992015999999998  0.3397514958311990
 -0.4433301081813498  0.8992015999999998  3.3411964546693316
 -0.4433301081813498  2.4447984000000003  3.3411964546693316
  6.9672727564336911  2.4447984000000003  0.3397514958311990
  2.7945227564336905  2.5712015999999998  0.3397514958311990
  3.7294198918186501  2.5712015999999998  3.3411964546693316
  3.7294198918186501  0.7727984000000001  3.3411964546693316
  2.7945227564336905  0.7727984000000001  0.3397514958311990
  0.8888247703648060  0.0000000000000000  2.4857441509730087
  5.6351178778875344  0.0000000000000000  1.1952037995275224
  5.0615747703648060  1.6719999999999999  2.4857441509730087
  1.4623678778875351  1.6719999999999999  1.1952037995275224
  4.0024251475624890  0.0000000000000000  1.5533600351112240
  2.5215175006898525  0.0000000000000000  2.1275879153893071
 -0.1703248524375116  1.6719999999999999  1.5533600351112240
  6.6942675006898513  1.6719999999999999  2.1275879153893071
  0.0000000000000000  0.0000000000000000  0.0000000000000000
  4.1727499999999997  1.6719999999999999  0.0000000000000000
