 Y  H 
 1.0000000000000000
     4.5990000000000002    0.0000000000000000    0.0000000000000000
     0.7664878491175694    4.5438046147644950    0.0000000000000000
    -0.7951023876710804    0.8917494243787224    4.4183168918989919
 Y   H  
   7   5
Cartesian
 -0.0143072692767555  2.7177770195716087  2.2091584459494960
  1.4473135348800570  4.7952352622372469  2.7676337010855288
  3.1230719265664324  0.6403187769059705  1.6506831908134634
  0.7278389515644572  0.9753537468560015  0.2646571818247496
  3.8425465098820317  4.4602002922872162  4.1536597100742423
  2.2505890645907995  3.1392115106460028  0.9472871416231439
  2.3197963968556898  2.2963425284972150  3.4710297502758478
  3.0370743939779534  3.7822184298741162  2.5842735500717202
  1.5333110674685360  1.6533356092691012  1.8340433418272717
  0.7576798276027693  3.3355597824385059  3.7887067348033856
  3.8127056338437200  2.0999942567047118  0.6296101570956063
  2.2995000000000001  0.0000000000000000  0.0000000000000000
