La2 Y6 H46
1.0
5.603319 0.000000 0.000000
-0.000000 5.603319 0.000000
0.000000 0.000000 5.603319
La Y H
2 6 46
direct
0.000000 0.000000 0.000000 La
0.500000 0.500000 0.500000 La
0.250000 0.500000 0.000000 Y
0.750000 0.500000 0.000000 Y
0.000000 0.250000 0.500000 Y
0.000000 0.750000 0.500000 Y
0.500000 0.000000 0.250000 Y
0.500000 0.000000 0.750000 Y
0.204051 0.795949 0.204051 H
0.795949 0.204051 0.795949 H
0.795949 0.204051 0.204051 H
0.204051 0.795949 0.795949 H
0.795949 0.795949 0.795949 H
0.204051 0.204051 0.204051 H
0.204051 0.204051 0.795949 H
0.795949 0.795949 0.204051 H
0.295949 0.704051 0.295949 H
0.704051 0.295949 0.704051 H
0.704051 0.295949 0.295949 H
0.295949 0.704051 0.704051 H
0.295949 0.295949 0.704051 H
0.704051 0.704051 0.295949 H
0.704051 0.704051 0.704051 H
0.295949 0.295949 0.295949 H
0.181094 0.500000 0.652459 H
0.818906 0.500000 0.347541 H
0.818906 0.500000 0.652459 H
0.181094 0.500000 0.347541 H
0.652459 0.181094 0.500000 H
0.347541 0.818906 0.500000 H
0.652459 0.818906 0.500000 H
0.347541 0.181094 0.500000 H
0.500000 0.652459 0.181094 H
0.500000 0.347541 0.818906 H
0.500000 0.652459 0.818906 H
0.500000 0.347541 0.181094 H
0.000000 0.681094 0.847541 H
0.000000 0.318906 0.152459 H
0.000000 0.318906 0.847541 H
0.000000 0.681094 0.152459 H
0.681094 0.152459 0.000000 H
0.318906 0.847541 0.000000 H
0.318906 0.152459 0.000000 H
0.681094 0.847541 0.000000 H
0.152459 0.000000 0.318906 H
0.847541 0.000000 0.681094 H
0.152459 0.000000 0.681094 H
0.847541 0.000000 0.318906 H
0.000000 0.500000 0.250000 H
0.000000 0.500000 0.750000 H
0.250000 0.000000 0.500000 H
0.750000 0.000000 0.500000 H
0.500000 0.250000 0.000000 H
0.500000 0.750000 0.000000 H
