SYSTEM = OPT
PREC = LOW
ENCUT = 450
EDIFF = 1e-3
IBRION = 2
ISIF = 2
NSW = 100
ISMEAR = 0
SIGMA = 0.05
POTIM = 0.30
LWAVE = FALSE
LCHARG = FALSE
ISTART = 0
NPAR = 8
