SYSTEM = OPT
PREC = LOW
ENCUT = 450
EDIFF = 1e-4
IBRION = 2
ISIF = 4
NSW = 120
ISMEAR = 0
SIGMA = 0.05
POTIM = 0.20
ISTART = 0
LWAVE = FALSE
LCHARG = FALSE
NPAR = 4
