SYSTEM = OPT
PREC = Normal
ENCUT = 500
EDIFF = 1e-5
EDIFFG = -0.2
IBRION = 2
ISIF = 3
NSW = 200
ISMEAR = 0
SIGMA = 0.05
POTIM = 0.10
LWAVE = FALSE
LCHARG = FALSE
NPAR = 4
