SYSTEM = SCF
PREC = Accurate 
ENCUT = 700
EDIFF = 1e-6
EDIFFG = -0.1
KSPACING = 0.2
ISMEAR = 0
SIGMA = 0.05
POTIM = 0.05
ISTART = 0
LWAVE = FALSE
LCHARG = FALSE
PSTRESS = 2000
NPAR = 4
KGAMMA = .TRUE.
