Ca  H 
 1.0000000000000000
     6.1270956895277404    0.0000000000000004    0.0000000000000004
     0.0000000000000000    6.1270956895277404    0.0000000000000004
     0.0000000000000000    0.0000000000000000    6.1270956895277404
 Ca  H  
   2  72
Cartesian
  0.0000000000000000  0.0000000000000000  0.0000000000000000
  3.0635478447638702  3.0635478447638702  3.0635478447638707
  4.8691837989516635  5.5382269614630193  0.6262589581854509
 -4.8691837989516635 -5.5382269614630193  0.6262589581854495
 -4.8691837989516635  5.5382269614630193 -0.6262589581854503
  4.8691837989516635 -5.5382269614630193 -0.6262589581854502
  0.6262589581854502  4.8691837989516635  5.5382269614630193
  0.6262589581854502 -4.8691837989516635 -5.5382269614630193
 -0.6262589581854502 -4.8691837989516635  5.5382269614630193
 -0.6262589581854502  4.8691837989516635 -5.5382269614630193
  5.5382269614630193  0.6262589581854505  4.8691837989516635
 -5.5382269614630193  0.6262589581854499 -4.8691837989516635
  5.5382269614630193 -0.6262589581854499 -4.8691837989516644
 -5.5382269614630193 -0.6262589581854505  4.8691837989516644
  7.9327316437155337  8.6017748062268904  3.6898068029493212
 -1.8056359541877933 -2.4746791166991491  3.6898068029493198
 -1.8056359541877933  8.6017748062268886  2.4372888865784206
  7.9327316437155337 -2.4746791166991482  2.4372888865784206
  3.6898068029493203  7.9327316437155337  8.6017748062268904
  3.6898068029493203 -1.8056359541877931 -2.4746791166991486
  2.4372888865784201 -1.8056359541877931  8.6017748062268886
  2.4372888865784201  7.9327316437155337 -2.4746791166991482
  8.6017748062268886  3.6898068029493207  7.9327316437155346
 -2.4746791166991486  3.6898068029493203 -1.8056359541877933
  8.6017748062268886  2.4372888865784206 -1.8056359541877927
 -2.4746791166991486  2.4372888865784201  7.9327316437155337
  5.1633552146520412  4.4250528848212127  2.8997650164820903
  0.9637404748756996  1.7020428047065277  2.8997650164820898
  0.9637404748756996  4.4250528848212127  3.2273306730456515
  5.1633552146520412  1.7020428047065279  3.2273306730456515
  2.8997650164820894  5.1633552146520412  4.4250528848212136
  2.8997650164820894  0.9637404748756998  1.7020428047065279
  3.2273306730456510  0.9637404748756998  4.4250528848212127
  3.2273306730456510  5.1633552146520412  1.7020428047065281
  4.4250528848212127  2.8997650164820898  5.1633552146520421
  1.7020428047065277  2.8997650164820898  0.9637404748756999
  4.4250528848212127  3.2273306730456515  0.9637404748757000
  1.7020428047065277  3.2273306730456510  5.1633552146520412
  2.0998073698881705  1.3615050400573427  5.9633128612459601
  4.0272883196395695  4.7655906494703979  5.9633128612459609
  4.0272883196395695  1.3615050400573427  0.1637828282817810
  2.0998073698881705  4.7655906494703979  0.1637828282817811
  5.9633128612459601  2.0998073698881710  1.3615050400573430
  5.9633128612459601  4.0272883196395695  4.7655906494703997
  0.1637828282817807  4.0272883196395695  1.3615050400573427
  0.1637828282817807  2.0998073698881705  4.7655906494703979
  1.3615050400573427  5.9633128612459601  2.0998073698881710
  4.7655906494703979  5.9633128612459601  4.0272883196395703
  1.3615050400573427  0.1637828282817808  4.0272883196395703
  4.7655906494703979  0.1637828282817810  2.0998073698881710
  0.8737680839533922  3.3582551315373381  2.4887027994557207
  5.2533276055743485  2.7688405579904027  2.4887027994557203
  5.2533276055743485  3.3582551315373386  3.6383928900720210
  0.8737680839533922  2.7688405579904023  3.6383928900720210
  2.4887027994557198  0.8737680839533923  3.3582551315373381
  2.4887027994557198  5.2533276055743485  2.7688405579904027
  3.6383928900720206  5.2533276055743485  3.3582551315373386
  3.6383928900720206  0.8737680839533924  2.7688405579904027
  3.3582551315373381  2.4887027994557198  0.8737680839533926
  2.7688405579904023  2.4887027994557198  5.2533276055743485
  3.3582551315373381  3.6383928900720206  5.2533276055743485
  2.7688405579904023  3.6383928900720206  0.8737680839533927
  3.9373159287172625  0.2947072867734680  5.5522506442195905
  2.1897797608104779  5.8323884027542725  5.5522506442195905
  2.1897797608104779  0.2947072867734679  0.5748450453081505
  3.9373159287172625  5.8323884027542725  0.5748450453081509
  5.5522506442195896  3.9373159287172630  0.2947072867734684
  5.5522506442195896  2.1897797608104783  5.8323884027542743
  0.5748450453081504  2.1897797608104779  0.2947072867734680
  0.5748450453081504  3.9373159287172625  5.8323884027542725
  0.2947072867734678  5.5522506442195905  3.9373159287172630
  5.8323884027542725  5.5522506442195896  2.1897797608104792
  0.2947072867734678  0.5748450453081504  2.1897797608104779
  5.8323884027542725  0.5748450453081507  3.9373159287172630
