Ca  H 
 1.0000000000000000
     5.1453693056405632    0.0000000000000003    0.0000000000000003
     0.0000000000000000    5.1453693056405632    0.0000000000000003
     0.0000000000000000    0.0000000000000000    5.1453693056405632
 Ca  H  
   2  20
Cartesian
  0.0000000000000000  0.0000000000000000  0.0000000000000000
  2.5726846528202816  2.5726846528202811  2.5726846528202820
  3.2169168583442724  0.0000000000000002  0.0000000000000002
 -3.2169168583442724 -0.0000000000000002 -0.0000000000000002
  0.0000000000000000  3.2169168583442724  0.0000000000000002
  0.0000000000000000 -3.2169168583442724 -0.0000000000000002
  0.0000000000000000  0.0000000000000000  3.2169168583442724
  0.0000000000000000  0.0000000000000000 -3.2169168583442724
  5.7896015111645536  2.5726846528202820  2.5726846528202820
 -0.6442322055239907  2.5726846528202816  2.5726846528202811
  2.5726846528202816  5.7896015111645536  2.5726846528202820
  2.5726846528202816 -0.6442322055239906  2.5726846528202811
  2.5726846528202816  2.5726846528202811  5.7896015111645536
  2.5726846528202816  2.5726846528202811 -0.6442322055239904
  1.4979163351459430  1.4979163351459430  1.4979163351459432
  3.6474529704946201  3.6474529704946206  1.4979163351459435
  3.6474529704946201  1.4979163351459432  3.6474529704946206
  1.4979163351459430  3.6474529704946201  3.6474529704946206
  4.0706009879662250  4.0706009879662250  4.0706009879662259
  1.0747683176743386  1.0747683176743386  4.0706009879662250
  1.0747683176743386  4.0706009879662250  1.0747683176743388
  4.0706009879662250  1.0747683176743388  1.0747683176743388
