Ca  H 
 1.0000000000000000
     6.4372443965543180    0.0000000000000004    0.0000000000000004
     0.0000000000000000    6.4372443965543180    0.0000000000000004
     0.0000000000000000    0.0000000000000000    6.4372443965543180
 Ca  H  
   2  26
Cartesian
  0.0000000000000000  0.0000000000000000  0.0000000000000000
  3.2186221982771590  3.2186221982771590  3.2186221982771595
  2.0913351989688267  0.0000000000000001  0.0000000000000001
 -2.0913351989688267 -0.0000000000000001 -0.0000000000000001
  0.0000000000000000  2.0913351989688267  0.0000000000000001
  0.0000000000000000 -2.0913351989688267 -0.0000000000000001
  0.0000000000000000  0.0000000000000000  2.0913351989688267
  0.0000000000000000  0.0000000000000000 -2.0913351989688267
  5.3099573972459853  3.2186221982771595  3.2186221982771595
  1.1272869993083323  3.2186221982771590  3.2186221982771595
  3.2186221982771590  5.3099573972459861  3.2186221982771595
  3.2186221982771590  1.1272869993083325  3.2186221982771595
  3.2186221982771590  3.2186221982771590  5.3099573972459853
  3.2186221982771590  3.2186221982771590  1.1272869993083328
  0.0000000000000000  3.2186221982771590  3.2186221982771590
  3.2186221982771590  0.0000000000000002  3.2186221982771590
  3.2186221982771590  3.2186221982771590  0.0000000000000004
  3.2186221982771590  0.0000000000000002  0.0000000000000002
  0.0000000000000000  3.2186221982771590  0.0000000000000002
  0.0000000000000000  0.0000000000000000  3.2186221982771590
  2.1485513578075159  2.1485513578075159  2.1485513578075164
  4.2886930387468025  4.2886930387468025  2.1485513578075164
  4.2886930387468025  2.1485513578075164  4.2886930387468025
  2.1485513578075159  4.2886930387468025  4.2886930387468025
  5.3671735560846745  5.3671735560846745  5.3671735560846754
  1.0700708404696431  1.0700708404696433  5.3671735560846754
  1.0700708404696431  5.3671735560846754  1.0700708404696435
  5.3671735560846745  1.0700708404696433  1.0700708404696435
