Ca  H 
 1.0000000000000000
     9.7454086947144969    0.0000000000000006    0.0000000000000006
     0.0000000000000000    9.7454086947144969    0.0000000000000006
     0.0000000000000000    0.0000000000000000    9.7454086947144969
 Ca  H  
  12  60
Cartesian
  8.3653786946065676  4.8727043473572502  0.0000000000000008
  1.3800300001079293  4.8727043473572484  0.0000000000000004
  0.0000000000000000  8.3653786946065676  4.8727043473572502
  0.0000000000000000  1.3800300001079293  4.8727043473572484
  4.8727043473572484  0.0000000000000003  8.3653786946065676
  4.8727043473572484  0.0000000000000003  1.3800300001079295
  3.4926743472493191  0.0000000000000002  4.8727043473572484
  6.2527343474651778  0.0000000000000004  4.8727043473572484
  4.8727043473572484  3.4926743472493200  0.0000000000000005
  4.8727043473572484  6.2527343474651778  0.0000000000000007
  0.0000000000000000  4.8727043473572484  3.4926743472493200
  0.0000000000000000  4.8727043473572484  6.2527343474651778
  5.8830343414496786  0.0000000000000004  0.0000000000000004
  3.8623743532648200  0.0000000000000002  0.0000000000000002
  0.0000000000000000  5.8830343414496786  0.0000000000000004
  0.0000000000000000  3.8623743532648200  0.0000000000000002
  0.0000000000000000  0.0000000000000000  5.8830343414496786
  0.0000000000000000  0.0000000000000000  3.8623743532648200
  1.0103299940924289  4.8727043473572484  4.8727043473572484
  8.7350787006220685  4.8727043473572502  4.8727043473572493
  4.8727043473572484  1.0103299940924293  4.8727043473572484
  4.8727043473572484  8.7350787006220685  4.8727043473572493
  4.8727043473572484  4.8727043473572484  1.0103299940924295
  4.8727043473572484  4.8727043473572484  8.7350787006220685
  4.4043839644271836  5.6228095284846393  3.3032201874064588
 -4.4043839644271836 -5.6228095284846393  3.3032201874064584
 -4.4043839644271836  5.6228095284846393 -3.3032201874064588
  4.4043839644271836 -5.6228095284846393 -3.3032201874064584
  3.3032201874064584  4.4043839644271836  5.6228095284846402
  3.3032201874064584 -4.4043839644271836 -5.6228095284846393
 -3.3032201874064584 -4.4043839644271836  5.6228095284846384
 -3.3032201874064584  4.4043839644271836 -5.6228095284846402
  5.6228095284846393  3.3032201874064593  4.4043839644271845
 -5.6228095284846393  3.3032201874064580 -4.4043839644271836
  5.6228095284846393 -3.3032201874064580 -4.4043839644271836
 -5.6228095284846393 -3.3032201874064593  4.4043839644271827
  9.2770883117844321 10.4955138758418904  8.1759245347637091
  0.4683203829300652 -0.7501051811273907  8.1759245347637073
  0.4683203829300652 10.4955138758418869  1.5694841599507907
  9.2770883117844321 -0.7501051811273901  1.5694841599507907
  8.1759245347637073  9.2770883117844321 10.4955138758418887
  8.1759245347637073  0.4683203829300657 -0.7501051811273902
  1.5694841599507900  0.4683203829300653 10.4955138758418869
  1.5694841599507900  9.2770883117844321 -0.7501051811273900
 10.4955138758418869  8.1759245347637073  9.2770883117844338
 -0.7501051811273907  8.1759245347637073  0.4683203829300656
 10.4955138758418869  1.5694841599507907  0.4683203829300659
 -0.7501051811273907  1.5694841599507900  9.2770883117844321
  9.5890087093047232  4.1989385140428732  1.4152658888783547
  0.1563999854097737  5.5464701806716246  1.4152658888783543
  0.1563999854097737  4.1989385140428723  8.3301428058361431
  9.5890087093047232  5.5464701806716254  8.3301428058361466
  1.4152658888783536  9.5890087093047232  4.1989385140428732
  1.4152658888783536  0.1563999854097738  5.5464701806716263
  8.3301428058361431  0.1563999854097742  4.1989385140428732
  8.3301428058361431  9.5890087093047232  5.5464701806716272
  4.1989385140428723  1.4152658888783538  9.5890087093047232
  5.5464701806716246  1.4152658888783540  0.1563999854097741
  4.1989385140428723  8.3301428058361431  0.1563999854097744
  5.5464701806716246  8.3301428058361431  9.5890087093047249
  4.7163043619474747  9.0716428614001199  6.2879702362356040
  5.0291043327670222  0.6737658333143770  6.2879702362356023
  5.0291043327670222  9.0716428614001199  3.4574384584788960
  4.7163043619474747  0.6737658333143769  3.4574384584788955
  6.2879702362356031  4.7163043619474756  9.0716428614001217
  6.2879702362356031  5.0291043327670222  0.6737658333143772
  3.4574384584788955  5.0291043327670222  9.0716428614001217
  3.4574384584788955  4.7163043619474747  0.6737658333143771
  9.0716428614001199  6.2879702362356031  4.7163043619474756
  0.6737658333143766  6.2879702362356031  5.0291043327670222
  9.0716428614001199  3.4574384584788960  5.0291043327670231
  0.6737658333143766  3.4574384584788955  4.7163043619474747
