Ca  H 
 1.0000000000000000
     8.4306150468281853    0.0000000000000005    0.0000000000000005
     0.0000000000000000    8.4306150468281853    0.0000000000000005
     0.0000000000000000    0.0000000000000000    8.4306150468281853
 Ca  H  
   8  28
Cartesian
  3.0686896881584622  3.0686896881584622  3.0686896881584627
  5.3619253586697218  5.3619253586697226  3.0686896881584627
  5.3619253586697218  3.0686896881584627  5.3619253586697235
  3.0686896881584622  5.3619253586697226  5.3619253586697235
  7.2839972115725553  7.2839972115725562  7.2839972115725562
  1.1466178352556300  1.1466178352556302  7.2839972115725553
  1.1466178352556300  7.2839972115725553  1.1466178352556307
  7.2839972115725553  1.1466178352556304  1.1466178352556307
  1.7257015328982515  0.0000000000000001  0.0000000000000001
 -1.7257015328982515 -0.0000000000000001 -0.0000000000000001
  0.0000000000000000  1.7257015328982515  0.0000000000000001
  0.0000000000000000 -1.7257015328982515 -0.0000000000000001
  0.0000000000000000  0.0000000000000000  1.7257015328982515
  0.0000000000000000  0.0000000000000000 -1.7257015328982515
  5.9410090563123443  4.2153075234140918  4.2153075234140935
  2.4896059905158414  4.2153075234140918  4.2153075234140918
  4.2153075234140926  5.9410090563123443  4.2153075234140935
  4.2153075234140926  2.4896059905158419  4.2153075234140918
  4.2153075234140926  4.2153075234140918  5.9410090563123452
  4.2153075234140926  4.2153075234140918  2.4896059905158419
  1.0368742205845007  1.0368742205845007  1.0368742205845010
  7.3937408262436843  7.3937408262436852  1.0368742205845016
  7.3937408262436843  1.0368742205845012  7.3937408262436852
  1.0368742205845007  7.3937408262436843  7.3937408262436852
  5.2521817439985936  5.2521817439985936  5.2521817439985945
  3.1784333028295917  3.1784333028295917  5.2521817439985936
  3.1784333028295917  5.2521817439985936  3.1784333028295917
  5.2521817439985936  3.1784333028295921  3.1784333028295917
  0.4259143419343452  0.4259143419343452  0.4259143419343452
  8.0047007048938408  8.0047007048938408  0.4259143419343462
  8.0047007048938408  0.4259143419343457  8.0047007048938408
  0.4259143419343452  8.0047007048938408  8.0047007048938408
  4.6412218653484381  4.6412218653484381  4.6412218653484381
  3.7893931814797468  3.7893931814797477  4.6412218653484389
  3.7893931814797468  4.6412218653484381  3.7893931814797472
  4.6412218653484381  3.7893931814797477  3.7893931814797472
