Ca  H 
 1.0000000000000000
     8.6095782059171455    0.0000000000000005    0.0000000000000005
     0.0000000000000000    8.6095782059171455    0.0000000000000005
     0.0000000000000000    0.0000000000000000    8.6095782059171455
 Ca  H  
   6  72
Cartesian
  0.0000000000000000  4.3047891029585728  4.3047891029585719
  4.3047891029585728  0.0000000000000003  4.3047891029585719
  4.3047891029585728  4.3047891029585719  0.0000000000000005
  4.3047891029585728  0.0000000000000003  0.0000000000000003
  0.0000000000000000  4.3047891029585728  0.0000000000000003
  0.0000000000000000  0.0000000000000000  4.3047891029585728
  7.7907012285762951  6.1996034992991103  4.3791575562082707
 -7.7907012285762951 -6.1996034992991103  4.3791575562082690
 -7.7907012285762951  6.1996034992991085 -4.3791575562082699
  7.7907012285762951 -6.1996034992991085 -4.3791575562082699
  4.3791575562082699  7.7907012285762951  6.1996034992991094
  4.3791575562082699 -7.7907012285762951 -6.1996034992991094
 -4.3791575562082699 -7.7907012285762951  6.1996034992991085
 -4.3791575562082699  7.7907012285762951 -6.1996034992991085
  6.1996034992991094  4.3791575562082699  7.7907012285762960
 -6.1996034992991094  4.3791575562082699 -7.7907012285762951
  6.1996034992991094 -4.3791575562082699 -7.7907012285762951
 -6.1996034992991094 -4.3791575562082699  7.7907012285762942
 12.0954903315348652 10.5043926022576812  8.6839466591668444
 -3.4859121256177223 -1.8948143963405362  8.6839466591668426
 -3.4859121256177223 10.5043926022576812 -0.0743684532496968
 12.0954903315348652 -1.8948143963405357 -0.0743684532496967
  8.6839466591668426 12.0954903315348670 10.5043926022576830
  8.6839466591668426 -3.4859121256177219 -1.8948143963405362
 -0.0743684532496973 -3.4859121256177223 10.5043926022576812
 -0.0743684532496973 12.0954903315348652 -1.8948143963405357
 10.5043926022576812  8.6839466591668408 12.0954903315348687
 -1.8948143963405364  8.6839466591668426 -3.4859121256177219
 10.5043926022576812 -0.0743684532496966 -3.4859121256177219
 -1.8948143963405364 -0.0743684532496974 12.0954903315348652
  1.3760478649486096  1.1932566674421325  3.7756927117262591
  7.2335303409685361  7.4163215384750130  3.7756927117262600
  7.2335303409685361  1.1932566674421330  4.8338854941908878
  1.3760478649486096  7.4163215384750130  4.8338854941908878
  3.7756927117262591  1.3760478649486099  1.1932566674421328
  3.7756927117262591  7.2335303409685361  7.4163215384750139
  4.8338854941908869  7.2335303409685361  1.1932566674421332
  4.8338854941908869  1.3760478649486099  7.4163215384750130
  1.1932566674421325  3.7756927117262591  1.3760478649486099
  7.4163215384750130  3.7756927117262595  7.2335303409685370
  1.1932566674421325  4.8338854941908869  7.2335303409685361
  7.4163215384750130  4.8338854941908878  1.3760478649486103
  5.6808369679071822  5.4980457704007053  8.0804818146848323
  2.9287412380099633  3.1115324355164402  8.0804818146848323
  2.9287412380099633  5.4980457704007053  0.5290963912323143
  5.6808369679071822  3.1115324355164407  0.5290963912323143
  8.0804818146848323  5.6808369679071831  5.4980457704007062
  8.0804818146848323  2.9287412380099638  3.1115324355164411
  0.5290963912323138  2.9287412380099633  5.4980457704007053
  0.5290963912323138  5.6808369679071822  3.1115324355164407
  5.4980457704007053  8.0804818146848323  5.6808369679071831
  3.1115324355164402  8.0804818146848323  2.9287412380099642
  5.4980457704007053  0.5290963912323141  2.9287412380099629
  3.1115324355164402  0.5290963912323140  5.6808369679071813
  4.2011477167793601  2.9364898830744806  0.8924748766451251
  4.4084304891377855  5.6730883228426654  0.8924748766451254
  4.4084304891377855  2.9364898830744810  7.7171033292720219
  4.2011477167793601  5.6730883228426654  7.7171033292720210
  0.8924748766451247  4.2011477167793601  2.9364898830744810
  0.8924748766451247  4.4084304891377855  5.6730883228426654
  7.7171033292720210  4.4084304891377863  2.9364898830744814
  7.7171033292720210  4.2011477167793618  5.6730883228426645
  2.9364898830744806  0.8924748766451249  4.2011477167793592
  5.6730883228426654  0.8924748766451250  4.4084304891377846
  2.9364898830744806  7.7171033292720210  4.4084304891377863
  5.6730883228426654  7.7171033292720210  4.2011477167793609
  8.5059368197379328  7.2412789860330538  5.1972639796036981
  0.1036413861792127  1.3682992198840922  5.1972639796036972
  0.1036413861792127  7.2412789860330520  3.4123142263134478
  8.5059368197379328  1.3682992198840926  3.4123142263134483
  5.1972639796036972  8.5059368197379310  7.2412789860330529
  5.1972639796036972  0.1036413861792130  1.3682992198840924
  3.4123142263134474  0.1036413861792129  7.2412789860330529
  3.4123142263134474  8.5059368197379328  1.3682992198840926
  7.2412789860330520  5.1972639796036972  8.5059368197379310
  1.3682992198840922  5.1972639796036972  0.1036413861792131
  7.2412789860330520  3.4123142263134478  0.1036413861792134
  1.3682992198840922  3.4123142263134478  8.5059368197379310
