Ca  H 
 1.0000000000000000
     8.5200704368501867    0.0000000000000005    0.0000000000000005
     0.0000000000000000    8.5200704368501867    0.0000000000000005
     0.0000000000000000    0.0000000000000000    8.5200704368501867
 Ca  H  
   2  72
Cartesian
  0.0000000000000000  0.0000000000000000  0.0000000000000000
  4.2600352184250925  4.2600352184250925  4.2600352184250942
  3.4642879482059890  0.1978871687016415  1.6458274574774454
 -3.4642879482059890 -0.1978871687016415  1.6458274574774450
 -3.4642879482059890  0.1978871687016411 -1.6458274574774450
  3.4642879482059890 -0.1978871687016411 -1.6458274574774450
  1.6458274574774452  3.4642879482059890  0.1978871687016416
  1.6458274574774452 -3.4642879482059881 -0.1978871687016414
 -1.6458274574774452 -3.4642879482059890  0.1978871687016410
 -1.6458274574774452  3.4642879482059881 -0.1978871687016412
  0.1978871687016413  1.6458274574774452  3.4642879482059890
 -0.1978871687016413  1.6458274574774447 -3.4642879482059881
  0.1978871687016413 -1.6458274574774447 -3.4642879482059890
 -0.1978871687016413 -1.6458274574774452  3.4642879482059881
  7.7243231666310823  4.4579223871267359  5.9058626759025392
  0.7957472702191046  4.0621480497234517  5.9058626759025374
  0.7957472702191046  4.4579223871267351  2.6142077609476484
  7.7243231666310823  4.0621480497234526  2.6142077609476488
  5.9058626759025383  7.7243231666310814  4.4579223871267342
  5.9058626759025383  0.7957472702191049  4.0621480497234517
  2.6142077609476484  0.7957472702191046  4.4579223871267351
  2.6142077609476484  7.7243231666310823  4.0621480497234526
  4.4579223871267351  5.9058626759025374  7.7243231666310823
  4.0621480497234517  5.9058626759025374  0.7957472702191051
  4.4579223871267351  2.6142077609476484  0.7957472702191051
  4.0621480497234517  2.6142077609476484  7.7243231666310814
  1.5670874329924462  0.3463277948089092  7.7069181125317758
  6.9529830038577405  8.1737426420412760  7.7069181125317767
  6.9529830038577405  0.3463277948089095  0.8131523243184103
  1.5670874329924462  8.1737426420412778  0.8131523243184103
  7.7069181125317758  1.5670874329924467  0.3463277948089097
  7.7069181125317758  6.9529830038577414  8.1737426420412778
  0.8131523243184099  6.9529830038577396  0.3463277948089096
  0.8131523243184099  1.5670874329924462  8.1737426420412778
  0.3463277948089091  7.7069181125317758  1.5670874329924467
  8.1737426420412778  7.7069181125317776  6.9529830038577405
  0.3463277948089091  0.8131523243184098  6.9529830038577396
  8.1737426420412778  0.8131523243184104  1.5670874329924465
  5.8271226514175396  4.6063630132340023  3.4468828941066838
  2.6929477854326471  3.9137074236161840  3.4468828941066834
  2.6929477854326471  4.6063630132340014  5.0731875427435034
  5.8271226514175396  3.9137074236161844  5.0731875427435043
  3.4468828941066829  5.8271226514175387  4.6063630132340032
  3.4468828941066829  2.6929477854326471  3.9137074236161848
  5.0731875427435034  2.6929477854326476  4.6063630132340032
  5.0731875427435034  5.8271226514175387  3.9137074236161848
  4.6063630132340023  3.4468828941066838  5.8271226514175396
  3.9137074236161844  3.4468828941066838  2.6929477854326476
  4.6063630132340023  5.0731875427435034  2.6929477854326471
  3.9137074236161844  5.0731875427435034  5.8271226514175405
  6.5391911538943139  2.4023282928255596  5.3907698484019422
  1.9808792829558728  6.1177421440246267  5.3907698484019431
  1.9808792829558728  2.4023282928255592  3.1293005884482450
  6.5391911538943139  6.1177421440246276  3.1293005884482459
  5.3907698484019422  6.5391911538943130  2.4023282928255600
  5.3907698484019422  1.9808792829558728  6.1177421440246285
  3.1293005884482450  1.9808792829558730  2.4023282928255596
  3.1293005884482450  6.5391911538943130  6.1177421440246285
  2.4023282928255592  5.3907698484019422  6.5391911538943148
  6.1177421440246276  5.3907698484019422  1.9808792829558732
  2.4023282928255592  3.1293005884482450  1.9808792829558730
  6.1177421440246276  3.1293005884482454  6.5391911538943148
  2.2791559354692206  6.6623635112506525  1.1307346299768488
  6.2409145013809662  1.8577069255995347  1.1307346299768488
  6.2409145013809662  6.6623635112506516  7.3893358068733379
  2.2791559354692206  1.8577069255995344  7.3893358068733379
  1.1307346299768481  2.2791559354692206  6.6623635112506516
  1.1307346299768481  6.2409145013809662  1.8577069255995344
  7.3893358068733370  6.2409145013809662  6.6623635112506534
  7.3893358068733370  2.2791559354692210  1.8577069255995349
  6.6623635112506525  1.1307346299768486  2.2791559354692210
  1.8577069255995340  1.1307346299768486  6.2409145013809653
  6.6623635112506525  7.3893358068733379  6.2409145013809670
  1.8577069255995340  7.3893358068733379  2.2791559354692206
