Ca  H 
 1.0000000000000000
     7.7786034746630657    0.0000000000000005    0.0000000000000005
     0.0000000000000000    7.7786034746630657    0.0000000000000005
     0.0000000000000000    0.0000000000000000    7.7786034746630657
 Ca  H  
   2  28
Cartesian
  0.0000000000000000  0.0000000000000000  0.0000000000000000
  3.8893017373315328  3.8893017373315333  3.8893017373315333
  4.5885921918915917  3.8893017373315333  0.0000000000000005
 -4.5885921918915917  3.8893017373315324 -0.0000000000000000
  0.0000000000000000  4.5885921918915917  3.8893017373315333
  0.0000000000000000 -4.5885921918915917  3.8893017373315324
  3.8893017373315328  0.0000000000000002  4.5885921918915917
  3.8893017373315328  0.0000000000000002 -4.5885921918915917
  8.4778939292231250  7.7786034746630666  3.8893017373315337
 -0.6992904545600589  7.7786034746630657  3.8893017373315333
  3.8893017373315328  8.4778939292231250  7.7786034746630666
  3.8893017373315328 -0.6992904545600587  7.7786034746630657
  7.7786034746630657  3.8893017373315333  8.4778939292231250
  7.7786034746630657  3.8893017373315333 -0.6992904545600582
  0.8970184305642306  0.8970184305642306  0.8970184305642307
  6.8815850440988351  6.8815850440988342  0.8970184305642315
  6.8815850440988351  0.8970184305642310  6.8815850440988360
  0.8970184305642306  6.8815850440988351  6.8815850440988360
  4.7863201678957639  4.7863201678957639  4.7863201678957648
  2.9922833067673023  2.9922833067673023  4.7863201678957639
  2.9922833067673023  4.7863201678957639  2.9922833067673027
  4.7863201678957639  2.9922833067673027  2.9922833067673027
  3.1313808608818769  3.1313808608818769  3.1313808608818774
  4.6472226137811887  4.6472226137811887  3.1313808608818769
  4.6472226137811887  3.1313808608818774  4.6472226137811887
  3.1313808608818769  4.6472226137811887  4.6472226137811887
  7.0206825982134102  7.0206825982134102  7.0206825982134111
  0.7579208764496558  0.7579208764496558  7.0206825982134102
  0.7579208764496558  7.0206825982134102  0.7579208764496562
  7.0206825982134102  0.7579208764496562  0.7579208764496562
