Ca  H 
 1.0000000000000000
     8.1299410910721264    0.0000000000000005    0.0000000000000005
     0.0000000000000000    8.1299410910721264    0.0000000000000005
     0.0000000000000000    0.0000000000000000    8.1299410910721264
 Ca  H  
   6  56
Cartesian
  0.0000000000000000  4.0649705455360632  4.0649705455360632
  4.0649705455360632  0.0000000000000002  4.0649705455360632
  4.0649705455360632  4.0649705455360632  0.0000000000000005
  4.0649705455360632  0.0000000000000002  0.0000000000000002
  0.0000000000000000  4.0649705455360632  0.0000000000000002
  0.0000000000000000  0.0000000000000000  4.0649705455360632
  3.6858776891714862  1.9157686488592405  3.5093340508874542
 -3.6858776891714862 -1.9157686488592405  3.5093340508874529
 -3.6858776891714862  1.9157686488592400 -3.5093340508874533
  3.6858776891714862 -1.9157686488592400 -3.5093340508874538
  3.5093340508874538  3.6858776891714857  1.9157686488592407
  3.5093340508874538 -3.6858776891714857 -1.9157686488592403
 -3.5093340508874538 -3.6858776891714857  1.9157686488592398
 -3.5093340508874538  3.6858776891714857 -1.9157686488592403
  1.9157686488592403  3.5093340508874533  3.6858776891714862
 -1.9157686488592403  3.5093340508874538 -3.6858776891714857
  1.9157686488592403 -3.5093340508874538 -3.6858776891714857
 -1.9157686488592403 -3.5093340508874533  3.6858776891714853
  7.7508482347075498  5.9807391943953041  7.5743045964235183
  0.3790928563645777  2.1492018966768227  7.5743045964235165
  0.3790928563645777  5.9807391943953032  0.5556364946486104
  7.7508482347075498  2.1492018966768232  0.5556364946486105
  7.5743045964235165  7.7508482347075498  5.9807391943953041
  7.5743045964235165  0.3790928563645781  2.1492018966768236
  0.5556364946486100  0.3790928563645777  5.9807391943953032
  0.5556364946486100  7.7508482347075498  2.1492018966768236
  5.9807391943953032  7.5743045964235165  7.7508482347075507
  2.1492018966768227  7.5743045964235165  0.3790928563645782
  5.9807391943953032  0.5556364946486103  0.3790928563645780
  2.1492018966768227  0.5556364946486101  7.7508482347075489
  2.3413453524132821  7.4590429965222826  6.9551362795730256
  5.7885957386588442  0.6708980945498442  6.9551362795730247
  5.7885957386588442  7.4590429965222826  1.1748048114991028
  2.3413453524132821  0.6708980945498439  1.1748048114991021
  6.9551362795730256  2.3413453524132826  7.4590429965222844
  6.9551362795730256  5.7885957386588442  0.6708980945498445
  1.1748048114991019  5.7885957386588442  7.4590429965222826
  1.1748048114991019  2.3413453524132821  0.6708980945498439
  7.4590429965222826  6.9551362795730256  2.3413453524132830
  0.6708980945498437  6.9551362795730256  5.7885957386588451
  7.4590429965222826  1.1748048114991028  5.7885957386588460
  0.6708980945498437  1.1748048114991023  2.3413453524132821
  6.4063158979493453  3.3940724509862203  2.8901657340369620
  1.7236251931227813  4.7358686400859069  2.8901657340369615
  1.7236251931227813  3.3940724509862195  5.2397753570351657
  6.4063158979493453  4.7358686400859069  5.2397753570351657
  2.8901657340369611  6.4063158979493453  3.3940724509862199
  2.8901657340369611  1.7236251931227813  4.7358686400859069
  5.2397753570351648  1.7236251931227813  3.3940724509862199
  5.2397753570351648  6.4063158979493453  4.7358686400859078
  3.3940724509862195  2.8901657340369615  6.4063158979493462
  4.7358686400859069  2.8901657340369615  1.7236251931227817
  3.3940724509862195  5.2397753570351657  1.7236251931227815
  4.7358686400859069  5.2397753570351657  6.4063158979493471
  3.2642651311435702  3.2642651311435706  3.2642651311435706
  4.8656759599285557  4.8656759599285557  3.2642651311435706
  4.8656759599285557  3.2642651311435706  4.8656759599285566
  3.2642651311435702  4.8656759599285566  4.8656759599285566
  7.3292356766796347  7.3292356766796347  7.3292356766796356
  0.8007054143924929  0.8007054143924929  7.3292356766796347
  0.8007054143924929  7.3292356766796347  0.8007054143924933
  7.3292356766796347  0.8007054143924933  0.8007054143924933
