Ca  H 
 1.0000000000000000
     5.1846059441191841    0.0000000000000003    0.0000000000000003
     0.0000000000000000    5.1846059441191841    0.0000000000000003
     0.0000000000000000    0.0000000000000000    5.1846059441191841
 Ca  H  
   2  56
Cartesian
  0.0000000000000000  0.0000000000000000  0.0000000000000000
  2.5923029720595920  2.5923029720595916  2.5923029720595925
  1.0242493070265521  2.9061368612834375  4.6605645359633261
 -1.0242493070265521 -2.9061368612834375  4.6605645359633261
 -1.0242493070265521  2.9061368612834375 -4.6605645359633252
  1.0242493070265521 -2.9061368612834375 -4.6605645359633261
  4.6605645359633261  1.0242493070265524  2.9061368612834380
  4.6605645359633261 -1.0242493070265517 -2.9061368612834371
 -4.6605645359633261 -1.0242493070265524  2.9061368612834371
 -4.6605645359633261  1.0242493070265517 -2.9061368612834380
  2.9061368612834375  4.6605645359633261  1.0242493070265526
 -2.9061368612834375  4.6605645359633252 -1.0242493070265521
  2.9061368612834375 -4.6605645359633252 -1.0242493070265521
 -2.9061368612834375 -4.6605645359633261  1.0242493070265517
  3.6165522790861440  5.4984398333430295  7.2528675080229190
  1.5680536650330399 -0.3138338892238455  7.2528675080229181
  1.5680536650330399  5.4984398333430295 -2.0682615639037332
  3.6165522790861440 -0.3138338892238454 -2.0682615639037336
  7.2528675080229181  3.6165522790861444  5.4984398333430304
  7.2528675080229181  1.5680536650330403 -0.3138338892238451
 -2.0682615639037336  1.5680536650330397  5.4984398333430295
 -2.0682615639037336  3.6165522790861440 -0.3138338892238455
  5.4984398333430295  7.2528675080229181  3.6165522790861448
 -0.3138338892238456  7.2528675080229181  1.5680536650330403
  5.4984398333430295 -2.0682615639037332  1.5680536650330401
 -0.3138338892238456 -2.0682615639037336  3.6165522790861440
  3.6156276480762526  2.8570113052758579  3.3947989671598862
  1.5689782960429315  2.3275946388433262  3.3947989671598862
  1.5689782960429315  2.8570113052758579  1.7898069769592988
  3.6156276480762526  2.3275946388433266  1.7898069769592990
  3.3947989671598857  3.6156276480762526  2.8570113052758583
  3.3947989671598857  1.5689782960429317  2.3275946388433266
  1.7898069769592986  1.5689782960429315  2.8570113052758579
  1.7898069769592986  3.6156276480762526  2.3275946388433266
  2.8570113052758579  3.3947989671598857  3.6156276480762530
  2.3275946388433262  3.3947989671598857  1.5689782960429319
  2.8570113052758579  1.7898069769592988  1.5689782960429317
  2.3275946388433262  1.7898069769592988  3.6156276480762530
  1.0233246760166606  0.2647083332162659  0.8024959951002936
  4.1612812681025231  4.9198976109029182  0.8024959951002940
  4.1612812681025231  0.2647083332162662  4.3821099490188908
  1.0233246760166606  4.9198976109029182  4.3821099490188908
  0.8024959951002935  1.0233246760166606  0.2647083332162660
  0.8024959951002935  4.1612812681025240  4.9198976109029173
  4.3821099490188908  4.1612812681025231  0.2647083332162663
  4.3821099490188908  1.0233246760166608  4.9198976109029173
  0.2647083332162659  0.8024959951002935  1.0233246760166603
  4.9198976109029182  0.8024959951002938  4.1612812681025231
  0.2647083332162659  4.3821099490188908  4.1612812681025231
  4.9198976109029182  4.3821099490188908  1.0233246760166614
  1.1427055045674210  1.1427055045674213  1.1427055045674213
  4.0419004395517630  4.0419004395517630  1.1427055045674217
  4.0419004395517630  1.1427055045674213  4.0419004395517630
  1.1427055045674210  4.0419004395517630  4.0419004395517630
  3.7350084766270131  3.7350084766270135  3.7350084766270135
  1.4495974674921710  1.4495974674921710  3.7350084766270131
  1.4495974674921710  3.7350084766270131  1.4495974674921712
  3.7350084766270131  1.4495974674921712  1.4495974674921712
