Ca  H 
 1.0000000000000000
     5.8202657339747494    0.0000000000000004    0.0000000000000004
     0.0000000000000000    5.8202657339747494    0.0000000000000004
     0.0000000000000000    0.0000000000000000    5.8202657339747494
 Ca  H  
   2  22
Cartesian
  0.0000000000000000  0.0000000000000000  0.0000000000000000
  2.9101328669873747  2.9101328669873747  2.9101328669873752
  0.0000000000000000  2.9101328669873747  2.9101328669873747
  2.9101328669873747  0.0000000000000002  2.9101328669873747
  2.9101328669873747  2.9101328669873747  0.0000000000000004
  2.9101328669873747  0.0000000000000002  0.0000000000000002
  0.0000000000000000  2.9101328669873747  0.0000000000000002
  0.0000000000000000  0.0000000000000000  2.9101328669873747
  0.8913477953989491  0.8913477953989491  0.8913477953989493
 -0.8913477953989491 -0.8913477953989491  0.8913477953989490
 -0.8913477953989491  0.8913477953989491 -0.8913477953989491
  0.8913477953989491 -0.8913477953989491 -0.8913477953989491
  3.8014806623863238  3.8014806623863242  3.8014806623863242
  2.0187850715884257  2.0187850715884257  3.8014806623863242
  2.0187850715884257  3.8014806623863238  2.0187850715884261
  3.8014806623863238  2.0187850715884261  2.0187850715884261
  1.9951675046649022  1.9951675046649024  1.9951675046649024
  3.8250982293098472  3.8250982293098477  1.9951675046649027
  3.8250982293098472  1.9951675046649024  3.8250982293098477
  1.9951675046649022  3.8250982293098472  3.8250982293098477
  4.9053003716522774  4.9053003716522774  4.9053003716522783
  0.9149653623224724  0.9149653623224725  4.9053003716522774
  0.9149653623224724  4.9053003716522774  0.9149653623224727
  4.9053003716522774  0.9149653623224727  0.9149653623224727
