Ca  H 
 1.0000000000000000
     6.9435136391483363    0.0000000000000004    0.0000000000000004
     0.0000000000000000    6.9435136391483363    0.0000000000000004
     0.0000000000000000    0.0000000000000000    6.9435136391483363
 Ca  H  
   2  48
Cartesian
  0.0000000000000000  0.0000000000000000  0.0000000000000000
  3.4717568195741682  3.4717568195741677  3.4717568195741686
  2.8750362069515836  0.0000000000000002  0.0000000000000002
  4.0684774321967527  0.0000000000000002  0.0000000000000002
  0.0000000000000000  2.8750362069515836  0.0000000000000002
  0.0000000000000000  4.0684774321967527  0.0000000000000002
  0.0000000000000000  0.0000000000000000  2.8750362069515836
  0.0000000000000000  0.0000000000000000  4.0684774321967527
  6.3467930265257522  3.4717568195741686  3.4717568195741686
  0.5967206126225844  3.4717568195741682  3.4717568195741686
  3.4717568195741682  6.3467930265257522  3.4717568195741686
  3.4717568195741682  0.5967206126225846  3.4717568195741686
  3.4717568195741682  3.4717568195741677  6.3467930265257522
  3.4717568195741682  3.4717568195741677  0.5967206126225848
  5.2166748741458351  3.4717568195741686  0.0000000000000005
  1.7268387650025014  3.4717568195741682  0.0000000000000003
  0.0000000000000000  5.2166748741458351  3.4717568195741686
  0.0000000000000000  1.7268387650025014  3.4717568195741682
  3.4717568195741682  0.0000000000000002  5.2166748741458351
  3.4717568195741682  0.0000000000000002  1.7268387650025017
  1.7449180545716667  0.0000000000000001  3.4717568195741682
  5.1985955845766698  0.0000000000000003  3.4717568195741686
  3.4717568195741682  1.7449180545716669  0.0000000000000003
  3.4717568195741682  5.1985955845766698  0.0000000000000005
  0.0000000000000000  3.4717568195741682  1.7449180545716669
  0.0000000000000000  3.4717568195741682  5.1985955845766698
  4.6341700963618475  2.1251518019137561  3.5577676079588780
 -4.6341700963618475 -2.1251518019137561  3.5577676079588771
 -4.6341700963618475  2.1251518019137552 -3.5577676079588776
  4.6341700963618475 -2.1251518019137552 -3.5577676079588776
  3.5577676079588776  4.6341700963618475  2.1251518019137556
  3.5577676079588776 -4.6341700963618475 -2.1251518019137552
 -3.5577676079588776 -4.6341700963618475  2.1251518019137552
 -3.5577676079588776  4.6341700963618475 -2.1251518019137556
  2.1251518019137556  3.5577676079588776  4.6341700963618475
 -2.1251518019137556  3.5577676079588776 -4.6341700963618475
  2.1251518019137556 -3.5577676079588776 -4.6341700963618475
 -2.1251518019137556 -3.5577676079588776  4.6341700963618466
  8.1059269159360152  5.5969086214879251  7.0295244275330466
 -1.1624132767876791  1.3466050176604123  7.0295244275330457
 -1.1624132767876791  5.5969086214879242 -0.0860107883847091
  8.1059269159360152  1.3466050176604127 -0.0860107883847088
  7.0295244275330457  8.1059269159360134  5.5969086214879251
  7.0295244275330457 -1.1624132767876785  1.3466050176604127
 -0.0860107883847094 -1.1624132767876791  5.5969086214879242
 -0.0860107883847094  8.1059269159360152  1.3466050176604127
  5.5969086214879242  7.0295244275330457  8.1059269159360152
  1.3466050176604123  7.0295244275330457 -1.1624132767876787
  5.5969086214879242 -0.0860107883847090 -1.1624132767876787
  1.3466050176604123 -0.0860107883847093  8.1059269159360152
