Ca  H 
 1.0000000000000000
     7.9154057025849793    0.0000000000000005    0.0000000000000005
     0.0000000000000000    7.9154057025849793    0.0000000000000005
     0.0000000000000000    0.0000000000000000    7.9154057025849793
 Ca  H  
   6  60
Cartesian
  0.0000000000000000  3.9577028512924897  3.9577028512924910
  3.9577028512924897  0.0000000000000002  3.9577028512924910
  3.9577028512924897  3.9577028512924910  0.0000000000000005
  3.9577028512924897  0.0000000000000002  0.0000000000000002
  0.0000000000000000  3.9577028512924897  0.0000000000000002
  0.0000000000000000  0.0000000000000000  3.9577028512924897
  5.7789756434333555  3.9577028512924901  0.0000000000000006
  2.1364300591516243  3.9577028512924897  0.0000000000000004
  0.0000000000000000  5.7789756434333555  3.9577028512924901
  0.0000000000000000  2.1364300591516243  3.9577028512924897
  3.9577028512924897  0.0000000000000002  5.7789756434333555
  3.9577028512924897  0.0000000000000002  2.1364300591516243
  1.8212727921408662  0.0000000000000001  3.9577028512924897
  6.0941329104441131  0.0000000000000004  3.9577028512924901
  3.9577028512924897  1.8212727921408665  0.0000000000000004
  3.9577028512924897  6.0941329104441140  0.0000000000000006
  0.0000000000000000  3.9577028512924897  1.8212727921408665
  0.0000000000000000  3.9577028512924897  6.0941329104441140
  7.4308115311270253  2.9411468966749501  3.2505232402294002
 -7.4308115311270253 -2.9411468966749501  3.2505232402293989
 -7.4308115311270253  2.9411468966749492 -3.2505232402293998
  7.4308115311270253 -2.9411468966749492 -3.2505232402293993
  3.2505232402293998  7.4308115311270262  2.9411468966749497
  3.2505232402293998 -7.4308115311270262 -2.9411468966749501
 -3.2505232402293998 -7.4308115311270262  2.9411468966749488
 -3.2505232402293998  7.4308115311270262 -2.9411468966749488
  2.9411468966749497  3.2505232402293998  7.4308115311270262
 -2.9411468966749497  3.2505232402293993 -7.4308115311270253
  2.9411468966749497 -3.2505232402293993 -7.4308115311270253
 -2.9411468966749497 -3.2505232402293998  7.4308115311270262
 11.3885143824195172  6.8988497479674393  7.2082260915218903
 -3.4731086798345365  1.0165559546175402  7.2082260915218894
 -3.4731086798345365  6.8988497479674384  0.7071796110630907
 11.3885143824195172  1.0165559546175411  0.7071796110630912
  7.2082260915218885 11.3885143824195154  6.8988497479674402
  7.2082260915218885 -3.4731086798345361  1.0165559546175407
  0.7071796110630905 -3.4731086798345365  6.8988497479674384
  0.7071796110630905 11.3885143824195172  1.0165559546175411
  6.8988497479674384  7.2082260915218894 11.3885143824195154
  1.0165559546175404  7.2082260915218885 -3.4731086798345361
  6.8988497479674384  0.7071796110630909 -3.4731086798345361
  1.0165559546175404  0.7071796110630906 11.3885143824195172
  0.8149589830043381  3.3313141770248569  6.1686261955323500
  7.1004467195806411  4.5840915255601233  6.1686261955323518
  7.1004467195806411  3.3313141770248573  1.7467795070526300
  0.8149589830043381  4.5840915255601242  1.7467795070526297
  6.1686261955323500  0.8149589830043383  3.3313141770248573
  6.1686261955323500  7.1004467195806420  4.5840915255601251
  1.7467795070526295  7.1004467195806411  3.3313141770248573
  1.7467795070526295  0.8149589830043382  4.5840915255601242
  3.3313141770248569  6.1686261955323500  0.8149589830043387
  4.5840915255601242  6.1686261955323500  7.1004467195806429
  3.3313141770248569  1.7467795070526295  7.1004467195806420
  4.5840915255601242  1.7467795070526297  0.8149589830043383
  4.7726618342968274  7.2890170283173461  2.2109233442398617
  3.1427438682881523  0.6263886742676336  2.2109233442398613
  3.1427438682881523  7.2890170283173470  5.7044823583451194
  4.7726618342968274  0.6263886742676337  5.7044823583451194
  2.2109233442398604  4.7726618342968274  7.2890170283173461
  2.2109233442398604  3.1427438682881523  0.6263886742676338
  5.7044823583451185  3.1427438682881523  7.2890170283173479
  5.7044823583451185  4.7726618342968283  0.6263886742676341
  7.2890170283173470  2.2109233442398608  4.7726618342968292
  0.6263886742676334  2.2109233442398604  3.1427438682881523
  7.2890170283173470  5.7044823583451203  3.1427438682881528
  0.6263886742676334  5.7044823583451185  4.7726618342968283
