Ca  H 
 1.0000000000000000
     5.5167519214967884    0.0000000000000003    0.0000000000000003
     0.0000000000000000    5.5167519214967884    0.0000000000000003
     0.0000000000000000    0.0000000000000000    5.5167519214967884
 Ca  H  
   2  48
Cartesian
  0.0000000000000000  0.0000000000000000  0.0000000000000000
  2.7583759607483942  2.7583759607483938  2.7583759607483946
  3.4306799981900116  0.3894855934208273  4.6081465793905743
 -3.4306799981900116 -0.3894855934208273  4.6081465793905734
 -3.4306799981900116  0.3894855934208268 -4.6081465793905743
  3.4306799981900116 -0.3894855934208268 -4.6081465793905734
  4.6081465793905743  3.4306799981900120  0.3894855934208276
  4.6081465793905743 -3.4306799981900111 -0.3894855934208270
 -4.6081465793905743 -3.4306799981900120  0.3894855934208265
 -4.6081465793905743  3.4306799981900111 -0.3894855934208271
  0.3894855934208270  4.6081465793905743  3.4306799981900120
 -0.3894855934208270  4.6081465793905743 -3.4306799981900111
  0.3894855934208270 -4.6081465793905743 -3.4306799981900120
 -0.3894855934208270 -4.6081465793905743  3.4306799981900111
  6.1890559589384058  3.1478615541692219  7.3665225401389689
 -0.6723040374416170  2.3688903673275670  7.3665225401389680
 -0.6723040374416170  3.1478615541692214 -1.8497706186421794
  6.1890559589384058  2.3688903673275674 -1.8497706186421792
  7.3665225401389680  6.1890559589384067  3.1478615541692223
  7.3665225401389680 -0.6723040374416166  2.3688903673275674
 -1.8497706186421794 -0.6723040374416172  3.1478615541692205
 -1.8497706186421794  6.1890559589384058  2.3688903673275674
  3.1478615541692214  7.3665225401389671  6.1890559589384049
  2.3688903673275670  7.3665225401389671 -0.6723040374416166
  3.1478615541692214 -1.8497706186421794 -0.6723040374416169
  2.3688903673275670 -1.8497706186421794  6.1890559589384058
  4.1312741000943562  1.5388941494979091  0.1654558262062781
  1.3854778214024324  3.9778577719988792  0.1654558262062781
  1.3854778214024324  1.5388941494979087  5.3512960952905102
  4.1312741000943562  3.9778577719988797  5.3512960952905111
  0.1654558262062777  4.1312741000943562  1.5388941494979091
  0.1654558262062777  1.3854778214024324  3.9778577719988792
  5.3512960952905102  1.3854778214024324  1.5388941494979094
  5.3512960952905102  4.1312741000943554  3.9778577719988797
  1.5388941494979089  0.1654558262062778  4.1312741000943562
  3.9778577719988788  0.1654558262062780  1.3854778214024326
  1.5388941494979089  5.3512960952905102  1.3854778214024328
  3.9778577719988788  5.3512960952905102  4.1312741000943562
  1.3728981393459616  4.2972701102463029  2.9238317869546724
  4.1438537821508268  1.2194818112504853  2.9238317869546724
  4.1438537821508268  4.2972701102463029  2.5929201345421165
  1.3728981393459616  1.2194818112504850  2.5929201345421160
  2.9238317869546719  1.3728981393459621  4.2972701102463029
  2.9238317869546719  4.1438537821508268  1.2194818112504857
  2.5929201345421165  4.1438537821508268  4.2972701102463029
  2.5929201345421165  1.3728981393459621  1.2194818112504853
  4.2972701102463029  2.9238317869546724  1.3728981393459623
  1.2194818112504853  2.9238317869546719  4.1438537821508268
  4.2972701102463029  2.5929201345421169  4.1438537821508259
  1.2194818112504853  2.5929201345421160  1.3728981393459618
