Ca  H 
 1.0000000000000000
     7.1599729792590443    0.0000000000000004    0.0000000000000004
     0.0000000000000000    7.1599729792590443    0.0000000000000004
     0.0000000000000000    0.0000000000000000    7.1599729792590443
 Ca  H  
   2  54
Cartesian
  0.0000000000000000  0.0000000000000000  0.0000000000000000
  3.5799864896295222  3.5799864896295222  3.5799864896295226
  2.1454036194975723  3.8137899470175527  4.4648144611880882
 -2.1454036194975723 -3.8137899470175527  4.4648144611880882
 -2.1454036194975723  3.8137899470175536 -4.4648144611880873
  2.1454036194975723 -3.8137899470175536 -4.4648144611880882
  4.4648144611880873  2.1454036194975723  3.8137899470175540
  4.4648144611880873 -2.1454036194975714 -3.8137899470175536
 -4.4648144611880873 -2.1454036194975723  3.8137899470175523
 -4.4648144611880873  2.1454036194975714 -3.8137899470175527
  3.8137899470175536  4.4648144611880882  2.1454036194975727
 -3.8137899470175536  4.4648144611880873 -2.1454036194975723
  3.8137899470175536 -4.4648144611880873 -2.1454036194975723
 -3.8137899470175536 -4.4648144611880882  2.1454036194975719
  5.7253901091270949  7.3937764366470748  8.0448009508176099
  1.4345828701319505 -0.2338034573880304  8.0448009508176099
  1.4345828701319505  7.3937764366470748 -0.8848279715585650
  5.7253901091270949 -0.2338034573880302 -0.8848279715585653
  8.0448009508176117  5.7253901091270949  7.3937764366470757
  8.0448009508176117  1.4345828701319510 -0.2338034573880299
 -0.8848279715585656  1.4345828701319505  7.3937764366470748
 -0.8848279715585656  5.7253901091270949 -0.2338034573880302
  7.3937764366470748  8.0448009508176099  5.7253901091270958
 -0.2338034573880305  8.0448009508176117  1.4345828701319510
  7.3937764366470748 -0.8848279715585652  1.4345828701319510
 -0.2338034573880305 -0.8848279715585655  5.7253901091270949
  1.2932821886718053  5.6477462705768922  5.0408352547271376
  5.8666907905872403  1.5122267086821524  5.0408352547271384
  5.8666907905872403  5.6477462705768930  2.1191377245319081
  1.2932821886718053  1.5122267086821521  2.1191377245319072
  5.0408352547271384  1.2932821886718053  5.6477462705768930
  5.0408352547271384  5.8666907905872394  1.5122267086821528
  2.1191377245319067  5.8666907905872403  5.6477462705768939
  2.1191377245319067  1.2932821886718053  1.5122267086821524
  5.6477462705768922  5.0408352547271376  1.2932821886718060
  1.5122267086821521  5.0408352547271384  5.8666907905872394
  5.6477462705768922  2.1191377245319072  5.8666907905872403
  1.5122267086821521  2.1191377245319067  1.2932821886718056
  4.8732686783013284  2.0677597809473709  1.4608487650976159
  2.2867043009577177  5.0922131983116738  1.4608487650976159
  2.2867043009577177  2.0677597809473705  5.6991242141614302
  4.8732686783013284  5.0922131983116738  5.6991242141614302
  1.4608487650976154  4.8732686783013284  2.0677597809473713
  1.4608487650976154  2.2867043009577177  5.0922131983116738
  5.6991242141614302  2.2867043009577177  2.0677597809473713
  5.6991242141614302  4.8732686783013275  5.0922131983116756
  2.0677597809473709  1.4608487650976156  4.8732686783013284
  5.0922131983116738  1.4608487650976156  2.2867043009577182
  2.0677597809473709  5.6991242141614302  2.2867043009577182
  5.0922131983116738  5.6991242141614302  4.8732686783013284
  0.0000000000000000  3.5799864896295222  3.5799864896295222
  3.5799864896295222  0.0000000000000002  3.5799864896295222
  3.5799864896295222  3.5799864896295222  0.0000000000000004
  3.5799864896295222  0.0000000000000002  0.0000000000000002
  0.0000000000000000  3.5799864896295222  0.0000000000000002
  0.0000000000000000  0.0000000000000000  3.5799864896295222
