Ca  H 
 1.0000000000000000
     5.5655073131443737    0.0000000000000003    0.0000000000000003
     0.0000000000000000    5.5655073131443737    0.0000000000000003
     0.0000000000000000    0.0000000000000000    5.5655073131443737
 Ca  H  
   2  32
Cartesian
  0.0000000000000000  0.0000000000000000  0.0000000000000000
  2.7827536565721869  2.7827536565721869  2.7827536565721873
  4.2016506580814026  0.1937786716780699  4.8648402700002231
 -4.2016506580814026 -0.1937786716780699  4.8648402700002231
 -4.2016506580814026  0.1937786716780694 -4.8648402700002231
  4.2016506580814026 -0.1937786716780694 -4.8648402700002231
  4.8648402700002231  4.2016506580814035  0.1937786716780702
  4.8648402700002231 -4.2016506580814026 -0.1937786716780696
 -4.8648402700002231 -4.2016506580814035  0.1937786716780691
 -4.8648402700002231  4.2016506580814026 -0.1937786716780697
  0.1937786716780696  4.8648402700002231  4.2016506580814035
 -0.1937786716780696  4.8648402700002231 -4.2016506580814026
  0.1937786716780696 -4.8648402700002231 -4.2016506580814035
 -0.1937786716780696 -4.8648402700002231  4.2016506580814026
  6.9844043146535899  2.9765323282502569  7.6475939265724104
 -1.4188970015092159  2.5889749848941177  7.6475939265724096
 -1.4188970015092159  2.9765323282502565 -2.0820866134280358
  6.9844043146535899  2.5889749848941177 -2.0820866134280354
  7.6475939265724096  6.9844043146535908  2.9765323282502574
  7.6475939265724096 -1.4188970015092155  2.5889749848941181
 -2.0820866134280358 -1.4188970015092162  2.9765323282502565
 -2.0820866134280358  6.9844043146535899  2.5889749848941181
  2.9765323282502565  7.6475939265724096  6.9844043146535908
  2.5889749848941173  7.6475939265724096 -1.4188970015092153
  2.9765323282502565 -2.0820866134280362 -1.4188970015092159
  2.5889749848941173 -2.0820866134280362  6.9844043146535899
  1.2207529137832200  1.2207529137832203  1.2207529137832203
  4.3447543993611539  4.3447543993611539  1.2207529137832207
  4.3447543993611539  1.2207529137832205  4.3447543993611539
  1.2207529137832200  4.3447543993611539  4.3447543993611539
  4.0035065703554071  4.0035065703554071  4.0035065703554080
  1.5620007427889668  1.5620007427889668  4.0035065703554071
  1.5620007427889668  4.0035065703554071  1.5620007427889673
  4.0035065703554071  1.5620007427889671  1.5620007427889673
