Ca  H 
 1.0000000000000000
     6.5440602166542687    0.0000000000000004    0.0000000000000004
     0.0000000000000000    6.5440602166542687    0.0000000000000004
     0.0000000000000000    0.0000000000000000    6.5440602166542687
 Ca  H  
   2  42
Cartesian
  0.0000000000000000  0.0000000000000000  0.0000000000000000
  3.2720301083271344  3.2720301083271344  3.2720301083271348
  1.6262504627373593  0.0000000000000001  0.0000000000000001
  4.9178097539169094  0.0000000000000003  0.0000000000000003
  0.0000000000000000  1.6262504627373593  0.0000000000000001
  0.0000000000000000  4.9178097539169094  0.0000000000000003
  0.0000000000000000  0.0000000000000000  1.6262504627373593
  0.0000000000000000  0.0000000000000000  4.9178097539169094
  4.8982805710644941  3.2720301083271348  3.2720301083271348
  1.6457796455897751  3.2720301083271344  3.2720301083271348
  3.2720301083271344  4.8982805710644941  3.2720301083271348
  3.2720301083271344  1.6457796455897753  3.2720301083271348
  3.2720301083271344  3.2720301083271344  4.8982805710644941
  3.2720301083271344  3.2720301083271344  1.6457796455897755
  1.5277996138186958  4.0513811429841065  2.2458557542531552
 -1.5277996138186958 -4.0513811429841065  2.2458557542531543
 -1.5277996138186958  4.0513811429841065 -2.2458557542531548
  1.5277996138186958 -4.0513811429841065 -2.2458557542531548
  2.2458557542531548  1.5277996138186960  4.0513811429841073
  2.2458557542531548 -1.5277996138186958 -4.0513811429841065
 -2.2458557542531548 -1.5277996138186960  4.0513811429841065
 -2.2458557542531548  1.5277996138186958 -4.0513811429841065
  4.0513811429841065  2.2458557542531552  1.5277996138186962
 -4.0513811429841065  2.2458557542531543 -1.5277996138186960
  4.0513811429841065 -2.2458557542531543 -1.5277996138186960
 -4.0513811429841065 -2.2458557542531552  1.5277996138186953
  4.7998297221458301  7.3234112513112413  5.5178858625802896
  1.7442304945084386 -0.7793510346569723  5.5178858625802887
  1.7442304945084386  7.3234112513112413  1.0261743540739805
  4.7998297221458301 -0.7793510346569721  1.0261743540739801
  5.5178858625802887  4.7998297221458301  7.3234112513112422
  5.5178858625802887  1.7442304945084390 -0.7793510346569720
  1.0261743540739798  1.7442304945084386  7.3234112513112413
  1.0261743540739798  4.7998297221458301 -0.7793510346569721
  7.3234112513112413  5.5178858625802896  4.7998297221458310
 -0.7793510346569724  5.5178858625802887  1.7442304945084388
  7.3234112513112413  1.0261743540739803  1.7442304945084390
 -0.7793510346569724  1.0261743540739801  4.7998297221458301
  0.0000000000000000  3.2720301083271344  3.2720301083271344
  3.2720301083271344  0.0000000000000002  3.2720301083271344
  3.2720301083271344  3.2720301083271344  0.0000000000000004
  3.2720301083271344  0.0000000000000002  0.0000000000000002
  0.0000000000000000  3.2720301083271344  0.0000000000000002
  0.0000000000000000  0.0000000000000000  3.2720301083271344
