Ca  H 
 1.0000000000000000
     8.8609876926362112    0.0000000000000005    0.0000000000000005
     0.0000000000000000    8.8609876926362112    0.0000000000000005
     0.0000000000000000    0.0000000000000000    8.8609876926362112
 Ca  H  
   2  38
Cartesian
  0.0000000000000000  0.0000000000000000  0.0000000000000000
  4.4304938463181056  4.4304938463181056  4.4304938463181074
  3.3691047464973161  4.2409962585925012  2.7524516193654005
 -3.3691047464973161 -4.2409962585925012  2.7524516193653996
 -3.3691047464973161  4.2409962585925021 -2.7524516193654005
  3.3691047464973161 -4.2409962585925021 -2.7524516193654001
  2.7524516193654001  3.3691047464973165  4.2409962585925021
  2.7524516193654001 -3.3691047464973161 -4.2409962585925012
 -2.7524516193654001 -3.3691047464973165  4.2409962585925021
 -2.7524516193654001  3.3691047464973161 -4.2409962585925012
  4.2409962585925012  2.7524516193654005  3.3691047464973165
 -4.2409962585925012  2.7524516193653996 -3.3691047464973165
  4.2409962585925012 -2.7524516193653996 -3.3691047464973161
 -4.2409962585925012 -2.7524516193654005  3.3691047464973156
  7.7995985928154230  8.6714901049106068  7.1829454656835070
  1.0613890998207893  0.1894975877256043  7.1829454656835052
  1.0613890998207893  8.6714901049106068  1.6780422269527062
  7.7995985928154230  0.1894975877256048  1.6780422269527064
  7.1829454656835052  7.7995985928154221  8.6714901049106103
  7.1829454656835052  1.0613890998207898  0.1894975877256048
  1.6780422269527056  1.0613890998207895  8.6714901049106068
  1.6780422269527056  7.7995985928154230  0.1894975877256049
  8.6714901049106068  7.1829454656835061  7.7995985928154239
  0.1894975877256043  7.1829454656835052  1.0613890998207898
  8.6714901049106068  1.6780422269527060  1.0613890998207900
  0.1894975877256043  1.6780422269527060  7.7995985928154230
  0.0000000000000000  4.4304938463181056  4.4304938463181056
  4.4304938463181056  0.0000000000000003  4.4304938463181056
  4.4304938463181056  4.4304938463181056  0.0000000000000005
  4.4304938463181056  0.0000000000000003  0.0000000000000003
  0.0000000000000000  4.4304938463181056  0.0000000000000003
  0.0000000000000000  0.0000000000000000  4.4304938463181056
  1.1978677944932850  1.1978677944932850  1.1978677944932852
  7.6631198981429263  7.6631198981429280  1.1978677944932858
  7.6631198981429263  1.1978677944932854  7.6631198981429280
  1.1978677944932850  7.6631198981429263  7.6631198981429280
  5.6283616408113906  5.6283616408113906  5.6283616408113915
  3.2326260518248207  3.2326260518248207  5.6283616408113906
  3.2326260518248207  5.6283616408113906  3.2326260518248211
  5.6283616408113906  3.2326260518248215  3.2326260518248211
