Ca  H 
 1.0000000000000000
     5.5663114767103092    0.0000000000000003    0.0000000000000003
     0.0000000000000000    5.5663114767103092    0.0000000000000003
     0.0000000000000000    0.0000000000000000    5.5663114767103092
 Ca  H  
   2  22
Cartesian
  0.0000000000000000  0.0000000000000000  0.0000000000000000
  2.7831557383551546  2.7831557383551546  2.7831557383551551
  0.0000000000000000  2.7831557383551546  2.7831557383551546
  2.7831557383551546  0.0000000000000002  2.7831557383551546
  2.7831557383551546  2.7831557383551546  0.0000000000000003
  2.7831557383551546  0.0000000000000002  0.0000000000000002
  0.0000000000000000  2.7831557383551546  0.0000000000000002
  0.0000000000000000  0.0000000000000000  2.7831557383551546
  1.1068336154082958  1.1068336154082961  1.1068336154082961
 -1.1068336154082958 -1.1068336154082961  1.1068336154082958
 -1.1068336154082958  1.1068336154082958 -1.1068336154082958
  1.1068336154082958 -1.1068336154082958 -1.1068336154082958
  3.8899893537634505  3.8899893537634509  3.8899893537634509
  1.6763221229468590  1.6763221229468588  3.8899893537634505
  1.6763221229468590  3.8899893537634505  1.6763221229468592
  3.8899893537634505  1.6763221229468590  1.6763221229468592
  1.7016844969337674  1.7016844969337674  1.7016844969337677
  3.8646269797765416  3.8646269797765420  1.7016844969337683
  3.8646269797765416  1.7016844969337677  3.8646269797765420
  1.7016844969337674  3.8646269797765425  3.8646269797765420
  4.4848402352889218  4.4848402352889227  4.4848402352889227
  1.0814712414213872  1.0814712414213872  4.4848402352889218
  1.0814712414213872  4.4848402352889218  1.0814712414213876
  4.4848402352889218  1.0814712414213874  1.0814712414213876
