Ca  H 
 1.0000000000000000
     9.4224045579452653    0.0000000000000006    0.0000000000000006
     0.0000000000000000    9.4224045579452653    0.0000000000000006
     0.0000000000000000    0.0000000000000000    9.4224045579452653
 Ca  H  
  12  48
Cartesian
  2.0501684073644331  0.0000000000000001  0.0000000000000001
  7.3722361505808323  0.0000000000000005  0.0000000000000005
  0.0000000000000000  2.0501684073644331  0.0000000000000001
  0.0000000000000000  7.3722361505808323  0.0000000000000005
  0.0000000000000000  0.0000000000000000  2.0501684073644331
  0.0000000000000000  0.0000000000000000  7.3722361505808323
  6.7613706863370657  4.7112022789726318  4.7112022789726336
  2.6610338716081996  4.7112022789726327  4.7112022789726336
  4.7112022789726327  6.7613706863370657  4.7112022789726336
  4.7112022789726327  2.6610338716082000  4.7112022789726336
  4.7112022789726327  4.7112022789726318  6.7613706863370666
  4.7112022789726327  4.7112022789726318  2.6610338716082000
  3.7938240023809713  0.0000000000000002  0.0000000000000002
  5.6285805555642936  0.0000000000000003  0.0000000000000003
  0.0000000000000000  3.7938240023809713  0.0000000000000002
  0.0000000000000000  5.6285805555642936  0.0000000000000003
  0.0000000000000000  0.0000000000000000  3.7938240023809713
  0.0000000000000000  0.0000000000000000  5.6285805555642936
  8.5050262813536044  4.7112022789726336  4.7112022789726336
  0.9173782765916614  4.7112022789726327  4.7112022789726318
  4.7112022789726327  8.5050262813536044  4.7112022789726336
  4.7112022789726327  0.9173782765916617  4.7112022789726318
  4.7112022789726327  4.7112022789726318  8.5050262813536044
  4.7112022789726327  4.7112022789726318  0.9173782765916619
  8.7375137724516314  0.0000000000000005  0.0000000000000005
  0.6848907854936345  0.0000000000000000  0.0000000000000000
  0.0000000000000000  8.7375137724516314  0.0000000000000005
  0.0000000000000000  0.6848907854936345  0.0000000000000000
  0.0000000000000000  0.0000000000000000  8.7375137724516314
  0.0000000000000000  0.0000000000000000  0.6848907854936345
  4.0263114934789979  4.7112022789726318  4.7112022789726336
  5.3960930644662675  4.7112022789726318  4.7112022789726336
  4.7112022789726327  4.0263114934789979  4.7112022789726336
  4.7112022789726327  5.3960930644662675  4.7112022789726336
  4.7112022789726327  4.7112022789726318  4.0263114934789987
  4.7112022789726327  4.7112022789726318  5.3960930644662684
  8.5446358980625252  1.4529275938161652  0.6619625225539469
 -8.5446358980625252 -1.4529275938161652  0.6619625225539456
 -8.5446358980625252  1.4529275938161643 -0.6619625225539467
  8.5446358980625252 -1.4529275938161643 -0.6619625225539458
  0.6619625225539463  8.5446358980625252  1.4529275938161654
  0.6619625225539463 -8.5446358980625252 -1.4529275938161652
 -0.6619625225539463 -8.5446358980625252  1.4529275938161641
 -0.6619625225539463  8.5446358980625252 -1.4529275938161643
  1.4529275938161648  0.6619625225539464  8.5446358980625252
 -1.4529275938161648  0.6619625225539462 -8.5446358980625252
  1.4529275938161648 -0.6619625225539462 -8.5446358980625252
 -1.4529275938161648 -0.6619625225539464  8.5446358980625252
 13.2558381770351570  6.1641298727887985  5.3731648015265803
 -3.8334336190898926  3.2582746851564677  5.3731648015265794
 -3.8334336190898926  6.1641298727887976  4.0492397564186868
 13.2558381770351570  3.2582746851564690  4.0492397564186877
  5.3731648015265794 13.2558381770351570  6.1641298727887985
  5.3731648015265794 -3.8334336190898921  3.2582746851564681
  4.0492397564186859 -3.8334336190898921  6.1641298727887976
  4.0492397564186859 13.2558381770351570  3.2582746851564690
  6.1641298727887976  5.3731648015265794 13.2558381770351570
  3.2582746851564681  5.3731648015265794 -3.8334336190898921
  6.1641298727887976  4.0492397564186859 -3.8334336190898921
  3.2582746851564681  4.0492397564186859 13.2558381770351570
