Ca  H 
 1.0000000000000000
     8.9733011749008433    0.0000000000000005    0.0000000000000005
     0.0000000000000000    8.9733011749008433    0.0000000000000005
     0.0000000000000000    0.0000000000000000    8.9733011749008433
 Ca  H  
   2  40
Cartesian
  0.0000000000000000  0.0000000000000000  0.0000000000000000
  4.4866505874504217  4.4866505874504208  4.4866505874504226
  5.0698162282803469  7.2059852119568122  2.3072656854558096
 -5.0698162282803469 -7.2059852119568122  2.3072656854558078
 -5.0698162282803469  7.2059852119568122 -2.3072656854558087
  5.0698162282803469 -7.2059852119568122 -2.3072656854558087
  2.3072656854558087  5.0698162282803469  7.2059852119568131
  2.3072656854558087 -5.0698162282803469 -7.2059852119568122
 -2.3072656854558087 -5.0698162282803469  7.2059852119568113
 -2.3072656854558087  5.0698162282803469 -7.2059852119568122
  7.2059852119568113  2.3072656854558091  5.0698162282803478
 -7.2059852119568113  2.3072656854558082 -5.0698162282803469
  7.2059852119568113 -2.3072656854558082 -5.0698162282803469
 -7.2059852119568113 -2.3072656854558091  5.0698162282803461
  9.5564668157307686 11.6926357994072347  6.7939162729062303
 -0.5831656408299252 -2.7193346245063910  6.7939162729062303
 -0.5831656408299252 11.6926357994072347  2.1793849019946139
  9.5564668157307686 -2.7193346245063905  2.1793849019946134
  6.7939162729062303  9.5564668157307686 11.6926357994072365
  6.7939162729062303 -0.5831656408299248 -2.7193346245063905
  2.1793849019946130 -0.5831656408299252 11.6926357994072347
  2.1793849019946130  9.5564668157307686 -2.7193346245063901
 11.6926357994072347  6.7939162729062312  9.5564668157307704
 -2.7193346245063910  6.7939162729062303 -0.5831656408299251
 11.6926357994072347  2.1793849019946139 -0.5831656408299244
 -2.7193346245063910  2.1793849019946130  9.5564668157307686
  0.8587302491885117  0.8587302491885117  0.8587302491885118
  8.1145709257123322  8.1145709257123322  0.8587302491885127
  8.1145709257123322  0.8587302491885122  8.1145709257123322
  0.8587302491885117  8.1145709257123322  8.1145709257123322
  5.3453808366389337  5.3453808366389337  5.3453808366389346
  3.6279203382619101  3.6279203382619105  5.3453808366389346
  3.6279203382619101  5.3453808366389337  3.6279203382619105
  5.3453808366389337  3.6279203382619101  3.6279203382619105
  3.7201088772501048  3.7201088772501052  3.7201088772501052
  5.2531922976507390  5.2531922976507390  3.7201088772501052
  5.2531922976507390  3.7201088772501052  5.2531922976507399
  3.7201088772501048  5.2531922976507390  5.2531922976507399
  8.2067594647005269  8.2067594647005269  8.2067594647005269
  0.7665417102003169  0.7665417102003170  8.2067594647005269
  0.7665417102003169  8.2067594647005269  0.7665417102003176
  8.2067594647005269  0.7665417102003176  0.7665417102003176
