Ca  H 
 1.0000000000000000
     6.2089901006814312    0.0000000000000004    0.0000000000000004
     0.0000000000000000    6.2089901006814312    0.0000000000000004
     0.0000000000000000    0.0000000000000000    6.2089901006814312
 Ca  H  
   2  22
Cartesian
  0.0000000000000000  0.0000000000000000  0.0000000000000000
  3.1044950503407152  3.1044950503407152  3.1044950503407156
  0.0000000000000000  3.1044950503407152  3.1044950503407152
  3.1044950503407152  0.0000000000000002  3.1044950503407152
  3.1044950503407152  3.1044950503407152  0.0000000000000004
  3.1044950503407152  0.0000000000000002  0.0000000000000002
  0.0000000000000000  3.1044950503407152  0.0000000000000002
  0.0000000000000000  0.0000000000000000  3.1044950503407152
  0.8996688344801517  0.8996688344801514  0.8996688344801518
 -0.8996688344801517 -0.8996688344801514  0.8996688344801516
 -0.8996688344801517  0.8996688344801514 -0.8996688344801517
  0.8996688344801517 -0.8996688344801514 -0.8996688344801517
  4.0041638848208674  4.0041638848208665  4.0041638848208674
  2.2048262158605638  2.2048262158605638  4.0041638848208665
  2.2048262158605638  4.0041638848208674  2.2048262158605643
  4.0041638848208674  2.2048262158605643  2.2048262158605643
  2.2774262503520761  2.2774262503520757  2.2774262503520761
  3.9315638503293546  3.9315638503293555  2.2774262503520766
  3.9315638503293546  2.2774262503520761  3.9315638503293555
  2.2774262503520761  3.9315638503293551  3.9315638503293555
  5.3819213006927917  5.3819213006927908  5.3819213006927926
  0.8270687999886396  0.8270687999886394  5.3819213006927908
  0.8270687999886396  5.3819213006927908  0.8270687999886397
  5.3819213006927917  0.8270687999886399  0.8270687999886397
