Ca  H 
 1.0000000000000000
     8.1297031875029884    0.0000000000000005    0.0000000000000005
     0.0000000000000000    8.1297031875029884    0.0000000000000005
     0.0000000000000000    0.0000000000000000    8.1297031875029884
 Ca  H  
   6  50
Cartesian
  0.0000000000000000  4.0648515937514942  4.0648515937514933
  4.0648515937514942  0.0000000000000002  4.0648515937514933
  4.0648515937514942  4.0648515937514933  0.0000000000000005
  4.0648515937514942  0.0000000000000002  0.0000000000000002
  0.0000000000000000  4.0648515937514942  0.0000000000000002
  0.0000000000000000  0.0000000000000000  4.0648515937514942
  7.6475012776074003  5.0596574109431520  5.6598437798881305
 -7.6475012776074003 -5.0596574109431520  5.6598437798881287
 -7.6475012776074003  5.0596574109431494 -5.6598437798881296
  7.6475012776074003 -5.0596574109431494 -5.6598437798881296
  5.6598437798881296  7.6475012776074003  5.0596574109431520
  5.6598437798881296 -7.6475012776074003 -5.0596574109431511
 -5.6598437798881296 -7.6475012776074003  5.0596574109431502
 -5.6598437798881296  7.6475012776074003 -5.0596574109431511
  5.0596574109431511  5.6598437798881296  7.6475012776074012
 -5.0596574109431511  5.6598437798881296 -7.6475012776074003
  5.0596574109431511 -5.6598437798881296 -7.6475012776074003
 -5.0596574109431511 -5.6598437798881296  7.6475012776073994
 11.7123528713588954  9.1245090046946462  9.7246953736396264
 -3.5826496838559065 -0.9948058171916572  9.7246953736396247
 -3.5826496838559065  9.1245090046946462 -1.5949921861366350
 11.7123528713588954 -0.9948058171916563 -1.5949921861366347
  9.7246953736396247 11.7123528713588954  9.1245090046946480
  9.7246953736396247 -3.5826496838559061 -0.9948058171916566
 -1.5949921861366354 -3.5826496838559065  9.1245090046946462
 -1.5949921861366354 11.7123528713588954 -0.9948058171916563
  9.1245090046946462  9.7246953736396247 11.7123528713588971
 -0.9948058171916569  9.7246953736396229 -3.5826496838559061
  9.1245090046946462 -1.5949921861366347 -3.5826496838559052
 -0.9948058171916569 -1.5949921861366354 11.7123528713588954
  3.0108136680254938  4.5901199566009891  1.5291517144095776
  5.1188895194774950  3.5395832309019983  1.5291517144095776
  5.1188895194774950  4.5901199566009900  6.6005514730934118
  3.0108136680254938  3.5395832309019979  6.6005514730934109
  1.5291517144095772  3.0108136680254938  4.5901199566009900
  1.5291517144095772  5.1188895194774950  3.5395832309019983
  6.6005514730934109  5.1188895194774950  4.5901199566009909
  6.6005514730934109  3.0108136680254942  3.5395832309019983
  4.5901199566009900  1.5291517144095774  3.0108136680254942
  3.5395832309019974  1.5291517144095774  5.1188895194774950
  4.5901199566009900  6.6005514730934109  5.1188895194774959
  3.5395832309019974  6.6005514730934109  3.0108136680254942
  7.0756652617769875  0.5252683628494965  5.5940033081610725
  1.0540379257260004  7.6044348246534925  5.5940033081610725
  1.0540379257260004  0.5252683628494962  2.5356998793419168
  7.0756652617769875  7.6044348246534925  2.5356998793419177
  5.5940033081610716  7.0756652617769875  0.5252683628494969
  5.5940033081610716  1.0540379257260009  7.6044348246534925
  2.5356998793419168  1.0540379257260006  0.5252683628494963
  2.5356998793419168  7.0756652617769875  7.6044348246534934
  0.5252683628494961  5.5940033081610716  7.0756652617769875
  7.6044348246534925  5.5940033081610725  1.0540379257260013
  0.5252683628494961  2.5356998793419168  1.0540379257260006
  7.6044348246534925  2.5356998793419172  7.0756652617769884
  0.0000000000000000  0.0000000000000000  0.0000000000000000
  4.0648515937514942  4.0648515937514933  4.0648515937514951
