Ca  H 
 1.0000000000000000
     7.8127219205607608    0.0000000000000005    0.0000000000000005
     0.0000000000000000    7.8127219205607608    0.0000000000000005
     0.0000000000000000    0.0000000000000000    7.8127219205607608
 Ca  H  
   6  38
Cartesian
  0.0000000000000000  3.9063609602803804  3.9063609602803808
  3.9063609602803804  0.0000000000000002  3.9063609602803808
  3.9063609602803804  3.9063609602803808  0.0000000000000005
  3.9063609602803804  0.0000000000000002  0.0000000000000002
  0.0000000000000000  3.9063609602803804  0.0000000000000002
  0.0000000000000000  0.0000000000000000  3.9063609602803804
  1.7913311902405389  3.9063609602803804  0.0000000000000003
  6.0213907303202214  3.9063609602803808  0.0000000000000006
  0.0000000000000000  1.7913311902405389  3.9063609602803804
  0.0000000000000000  6.0213907303202214  3.9063609602803808
  3.9063609602803804  0.0000000000000002  1.7913311902405393
  3.9063609602803804  0.0000000000000002  6.0213907303202214
  5.6976921505209193  0.0000000000000003  3.9063609602803808
  2.1150297700398415  0.0000000000000001  3.9063609602803804
  3.9063609602803804  5.6976921505209193  0.0000000000000006
  3.9063609602803804  2.1150297700398419  0.0000000000000004
  0.0000000000000000  3.9063609602803804  5.6976921505209193
  0.0000000000000000  3.9063609602803804  2.1150297700398419
  0.1039873700536601  2.5409304224725240  1.3136715256064722
 -0.1039873700536601 -2.5409304224725240  1.3136715256064717
 -0.1039873700536601  2.5409304224725240 -1.3136715256064717
  0.1039873700536601 -2.5409304224725240 -1.3136715256064722
  1.3136715256064719  0.1039873700536601  2.5409304224725240
  1.3136715256064719 -0.1039873700536600 -2.5409304224725244
 -1.3136715256064719 -0.1039873700536601  2.5409304224725240
 -1.3136715256064719  0.1039873700536600 -2.5409304224725240
  2.5409304224725240  1.3136715256064722  0.1039873700536603
 -2.5409304224725240  1.3136715256064717 -0.1039873700536601
  2.5409304224725240 -1.3136715256064717 -0.1039873700536600
 -2.5409304224725240 -1.3136715256064722  0.1039873700536598
  4.0103483303340406  6.4472913827529048  5.2200324858868532
  3.8023735902267202  1.3654305378078568  5.2200324858868523
  3.8023735902267202  6.4472913827529048  2.5926894346739089
  4.0103483303340406  1.3654305378078568  2.5926894346739093
  5.2200324858868523  4.0103483303340406  6.4472913827529048
  5.2200324858868523  3.8023735902267206  1.3654305378078571
  2.5926894346739084  3.8023735902267206  6.4472913827529039
  2.5926894346739084  4.0103483303340406  1.3654305378078571
  6.4472913827529039  5.2200324858868532  4.0103483303340415
  1.3654305378078568  5.2200324858868523  3.8023735902267206
  6.4472913827529039  2.5926894346739089  3.8023735902267211
  1.3654305378078568  2.5926894346739084  4.0103483303340406
  0.0000000000000000  0.0000000000000000  0.0000000000000000
  3.9063609602803804  3.9063609602803808  3.9063609602803808
