Ca  H 
 1.0000000000000000
     7.0957446583580221    0.0000000000000004    0.0000000000000004
     0.0000000000000000    7.0957446583580221    0.0000000000000004
     0.0000000000000000    0.0000000000000000    7.0957446583580221
 Ca  H  
   2  60
Cartesian
  0.0000000000000000  0.0000000000000000  0.0000000000000000
  3.5478723291790111  3.5478723291790106  3.5478723291790115
  1.8580133366423841  3.5478723291790106  0.0000000000000003
  5.2377313217156383  3.5478723291790115  0.0000000000000005
  0.0000000000000000  1.8580133366423841  3.5478723291790106
  0.0000000000000000  5.2377313217156383  3.5478723291790115
  3.5478723291790111  0.0000000000000002  1.8580133366423843
  3.5478723291790111  0.0000000000000002  5.2377313217156383
  5.4058856658213941  0.0000000000000003  3.5478723291790115
  1.6898589925366267  0.0000000000000001  3.5478723291790106
  3.5478723291790111  5.4058856658213941  0.0000000000000005
  3.5478723291790111  1.6898589925366270  0.0000000000000003
  0.0000000000000000  3.5478723291790111  5.4058856658213941
  0.0000000000000000  3.5478723291790111  1.6898589925366270
  2.3137210178277927  3.7137178949893279  4.9224726662957226
 -2.3137210178277927 -3.7137178949893279  4.9224726662957226
 -2.3137210178277927  3.7137178949893279 -4.9224726662957234
  2.3137210178277927 -3.7137178949893279 -4.9224726662957234
  4.9224726662957234  2.3137210178277932  3.7137178949893284
  4.9224726662957234 -2.3137210178277923 -3.7137178949893279
 -4.9224726662957234 -2.3137210178277932  3.7137178949893275
 -4.9224726662957234  2.3137210178277923 -3.7137178949893279
  3.7137178949893279  4.9224726662957234  2.3137210178277932
 -3.7137178949893279  4.9224726662957234 -2.3137210178277927
  3.7137178949893279 -4.9224726662957234 -2.3137210178277927
 -3.7137178949893279 -4.9224726662957234  2.3137210178277923
  5.8615933470068029  7.2615902241683390  8.4703449954747327
  1.2341513113512181 -0.1658455658103166  8.4703449954747345
  1.2341513113512181  7.2615902241683390 -1.3746003371167117
  5.8615933470068029 -0.1658455658103163 -1.3746003371167117
  8.4703449954747345  5.8615933470068047  7.2615902241683399
  8.4703449954747345  1.2341513113512184 -0.1658455658103161
 -1.3746003371167121  1.2341513113512181  7.2615902241683390
 -1.3746003371167121  5.8615933470068029 -0.1658455658103164
  7.2615902241683390  8.4703449954747345  5.8615933470068038
 -0.1658455658103167  8.4703449954747345  1.2341513113512184
  7.2615902241683390 -1.3746003371167117  1.2341513113512186
 -0.1658455658103167 -1.3746003371167121  5.8615933470068038
  0.5417019407168561  5.7233121515629026  5.0098910131137737
  6.5540427176411660  1.3724325067951202  5.0098910131137746
  6.5540427176411660  5.7233121515629017  2.0858536452442489
  0.5417019407168561  1.3724325067951195  2.0858536452442480
  5.0098910131137728  0.5417019407168565  5.7233121515629017
  5.0098910131137728  6.5540427176411651  1.3724325067951202
  2.0858536452442475  6.5540427176411651  5.7233121515629026
  2.0858536452442475  0.5417019407168562  1.3724325067951200
  5.7233121515629026  5.0098910131137737  0.5417019407168567
  1.3724325067951197  5.0098910131137728  6.5540427176411651
  5.7233121515629026  2.0858536452442484  6.5540427176411669
  1.3724325067951197  2.0858536452442475  0.5417019407168564
  4.0895742698958673  2.1754398223838916  1.4620186839347633
  3.0061703884621549  4.9203048359741297  1.4620186839347633
  3.0061703884621549  2.1754398223838911  5.6337259744232595
  4.0895742698958673  4.9203048359741306  5.6337259744232595
  1.4620186839347629  4.0895742698958673  2.1754398223838916
  1.4620186839347629  3.0061703884621545  4.9203048359741306
  5.6337259744232595  3.0061703884621553  2.1754398223838916
  5.6337259744232595  4.0895742698958664  4.9203048359741315
  2.1754398223838911  1.4620186839347631  4.0895742698958664
  4.9203048359741297  1.4620186839347631  3.0061703884621553
  2.1754398223838911  5.6337259744232595  3.0061703884621553
  4.9203048359741297  5.6337259744232595  4.0895742698958681
