Ca  H 
 1.0000000000000000
     7.7666570116841838    0.0000000000000005    0.0000000000000005
     0.0000000000000000    7.7666570116841838    0.0000000000000005
     0.0000000000000000    0.0000000000000000    7.7666570116841838
 Ca  H  
   6  60
Cartesian
  0.0000000000000000  3.8833285058420919  3.8833285058420932
  3.8833285058420919  0.0000000000000002  3.8833285058420932
  3.8833285058420919  3.8833285058420932  0.0000000000000005
  3.8833285058420919  0.0000000000000002  0.0000000000000002
  0.0000000000000000  3.8833285058420919  0.0000000000000002
  0.0000000000000000  0.0000000000000000  3.8833285058420919
  1.4907776837538242  0.0000000000000001  0.0000000000000001
  6.2758793279303609  0.0000000000000004  0.0000000000000004
  0.0000000000000000  1.4907776837538242  0.0000000000000001
  0.0000000000000000  6.2758793279303609  0.0000000000000004
  0.0000000000000000  0.0000000000000000  1.4907776837538242
  0.0000000000000000  0.0000000000000000  6.2758793279303609
  5.3741061895959170  3.8833285058420932  3.8833285058420923
  2.3925508220882685  3.8833285058420919  3.8833285058420923
  3.8833285058420919  5.3741061895959170  3.8833285058420923
  3.8833285058420919  2.3925508220882685  3.8833285058420923
  3.8833285058420919  3.8833285058420932  5.3741061895959170
  3.8833285058420919  3.8833285058420932  2.3925508220882690
  2.3801332756953433  1.5413727716888266  0.3040025786097161
 -2.3801332756953433 -1.5413727716888266  0.3040025786097157
 -2.3801332756953433  1.5413727716888264 -0.3040025786097160
  2.3801332756953433 -1.5413727716888264 -0.3040025786097159
  0.3040025786097159  2.3801332756953433  1.5413727716888266
  0.3040025786097159 -2.3801332756953433 -1.5413727716888266
 -0.3040025786097159 -2.3801332756953433  1.5413727716888264
 -0.3040025786097159  2.3801332756953433 -1.5413727716888264
  1.5413727716888266  0.3040025786097160  2.3801332756953433
 -1.5413727716888266  0.3040025786097157 -2.3801332756953433
  1.5413727716888266 -0.3040025786097157 -2.3801332756953437
 -1.5413727716888266 -0.3040025786097160  2.3801332756953437
  6.2634617815374360  5.4247012775309189  4.1873310844518095
  1.5031952301467488  2.3419557341532662  4.1873310844518077
  1.5031952301467488  5.4247012775309180  3.5793259272323770
  6.2634617815374360  2.3419557341532666  3.5793259272323770
  4.1873310844518077  6.2634617815374352  5.4247012775309198
  4.1873310844518077  1.5031952301467491  2.3419557341532666
  3.5793259272323765  1.5031952301467491  5.4247012775309180
  3.5793259272323765  6.2634617815374352  2.3419557341532662
  5.4247012775309180  4.1873310844518077  6.2634617815374369
  2.3419557341532662  4.1873310844518077  1.5031952301467493
  5.4247012775309180  3.5793259272323770  1.5031952301467491
  2.3419557341532662  3.5793259272323761  6.2634617815374352
  1.3072332181402704  2.4918734559464841  6.9058648157893527
  6.4594237935439134  5.2747835557377005  6.9058648157893527
  6.4594237935439134  2.4918734559464841  0.8607921958948328
  1.3072332181402704  5.2747835557376996  0.8607921958948328
  6.9058648157893527  1.3072332181402708  2.4918734559464846
  6.9058648157893527  6.4594237935439143  5.2747835557377005
  0.8607921958948322  6.4594237935439134  2.4918734559464841
  0.8607921958948322  1.3072332181402704  5.2747835557376996
  2.4918734559464837  6.9058648157893527  1.3072332181402708
  5.2747835557376996  6.9058648157893527  6.4594237935439143
  2.4918734559464837  0.8607921958948325  6.4594237935439143
  5.2747835557376996  0.8607921958948326  1.3072332181402706
  5.1905617239823618  6.3752019617885765  3.0225363099472609
  2.5760952877018224  1.3914550498956084  3.0225363099472604
  2.5760952877018224  6.3752019617885756  4.7441207017369260
  5.1905617239823618  1.3914550498956082  4.7441207017369242
  3.0225363099472595  5.1905617239823618  6.3752019617885773
  3.0225363099472595  2.5760952877018219  1.3914550498956086
  4.7441207017369251  2.5760952877018224  6.3752019617885773
  4.7441207017369251  5.1905617239823627  1.3914550498956089
  6.3752019617885756  3.0225363099472604  5.1905617239823636
  1.3914550498956080  3.0225363099472595  2.5760952877018224
  6.3752019617885756  4.7441207017369242  2.5760952877018228
  1.3914550498956080  4.7441207017369242  5.1905617239823627
