Ca  H 
 1.0000000000000000
     5.0542461770517182    0.0000000000000003    0.0000000000000003
     0.0000000000000000    5.0542461770517182    0.0000000000000003
     0.0000000000000000    0.0000000000000000    5.0542461770517182
 Ca  H  
   2  54
Cartesian
  0.0000000000000000  0.0000000000000000  0.0000000000000000
  2.5271230885258591  2.5271230885258587  2.5271230885258595
  0.3342350000389693  4.4234373244292797  3.0768475781044793
 -0.3342350000389693 -4.4234373244292797  3.0768475781044780
 -0.3342350000389693  4.4234373244292797 -3.0768475781044784
  0.3342350000389693 -4.4234373244292797 -3.0768475781044793
  3.0768475781044788  0.3342350000389695  4.4234373244292797
  3.0768475781044788 -0.3342350000389692 -4.4234373244292797
 -3.0768475781044788 -0.3342350000389695  4.4234373244292788
 -3.0768475781044788  0.3342350000389692 -4.4234373244292797
  4.4234373244292797  3.0768475781044793  0.3342350000389698
 -4.4234373244292797  3.0768475781044784 -0.3342350000389694
  4.4234373244292797 -3.0768475781044784 -0.3342350000389693
 -4.4234373244292797 -3.0768475781044793  0.3342350000389689
  2.8613580885648284  6.9505604129551388  5.6039706666303388
  2.1928880884868898 -1.8963142359034202  5.6039706666303379
  2.1928880884868898  6.9505604129551388 -0.5497244895786193
  2.8613580885648284 -1.8963142359034202 -0.5497244895786197
  5.6039706666303379  2.8613580885648289  6.9505604129551397
  5.6039706666303379  2.1928880884868902 -1.8963142359034200
 -0.5497244895786199  2.1928880884868898  6.9505604129551388
 -0.5497244895786199  2.8613580885648284 -1.8963142359034202
  6.9505604129551388  5.6039706666303379  2.8613580885648293
 -1.8963142359034204  5.6039706666303379  2.1928880884868907
  6.9505604129551388 -0.5497244895786194  2.1928880884868902
 -1.8963142359034204 -0.5497244895786200  2.8613580885648284
  0.5343210733559203  0.9950582797382481  0.2491376921932291
  4.5199251036957975  4.0591878973134703  0.2491376921932295
  4.5199251036957975  0.9950582797382483  4.8051084848584900
  0.5343210733559203  4.0591878973134703  4.8051084848584891
  0.2491376921932290  0.5343210733559203  0.9950582797382481
  0.2491376921932290  4.5199251036957975  4.0591878973134703
  4.8051084848584891  4.5199251036957975  0.9950582797382487
  4.8051084848584891  0.5343210733559206  4.0591878973134703
  0.9950582797382481  0.2491376921932290  0.5343210733559204
  4.0591878973134703  0.2491376921932292  4.5199251036957975
  0.9950582797382481  4.8051084848584891  4.5199251036957975
  4.0591878973134703  4.8051084848584891  0.5343210733559208
  3.0614441618817794  3.5221813682641070  2.7762607807190887
  1.9928020151699388  1.5320648087876112  2.7762607807190882
  1.9928020151699388  3.5221813682641070  2.2779853963326304
  3.0614441618817794  1.5320648087876112  2.2779853963326304
  2.7762607807190882  3.0614441618817794  3.5221813682641074
  2.7762607807190882  1.9928020151699390  1.5320648087876112
  2.2779853963326300  1.9928020151699388  3.5221813682641074
  2.2779853963326300  3.0614441618817794  1.5320648087876112
  3.5221813682641070  2.7762607807190882  3.0614441618817798
  1.5320648087876110  2.7762607807190882  1.9928020151699390
  3.5221813682641070  2.2779853963326300  1.9928020151699390
  1.5320648087876110  2.2779853963326304  3.0614441618817798
  0.0000000000000000  2.5271230885258591  2.5271230885258587
  2.5271230885258591  0.0000000000000002  2.5271230885258587
  2.5271230885258591  2.5271230885258587  0.0000000000000003
  2.5271230885258591  0.0000000000000002  0.0000000000000002
  0.0000000000000000  2.5271230885258591  0.0000000000000002
  0.0000000000000000  0.0000000000000000  2.5271230885258591
