Ca  H 
 1.0000000000000000
     5.8981755886411822    0.0000000000000004    0.0000000000000004
     0.0000000000000000    5.8981755886411822    0.0000000000000004
     0.0000000000000000    0.0000000000000000    5.8981755886411822
 Ca  H  
   2  72
Cartesian
  0.0000000000000000  0.0000000000000000  0.0000000000000000
  2.9490877943205911  2.9490877943205906  2.9490877943205915
  2.4973871419293951  3.8985686260848205  0.1000910631893743
 -2.4973871419293951 -3.8985686260848205  0.1000910631893735
 -2.4973871419293951  3.8985686260848205 -0.1000910631893738
  2.4973871419293951 -3.8985686260848205 -0.1000910631893740
  0.1000910631893739  2.4973871419293951  3.8985686260848205
  0.1000910631893739 -2.4973871419293951 -3.8985686260848205
 -0.1000910631893739 -2.4973871419293951  3.8985686260848205
 -0.1000910631893739  2.4973871419293951 -3.8985686260848205
  3.8985686260848200  0.1000910631893742  2.4973871419293956
 -3.8985686260848200  0.1000910631893737 -2.4973871419293956
  3.8985686260848200 -0.1000910631893737 -2.4973871419293947
 -3.8985686260848200 -0.1000910631893742  2.4973871419293947
  5.4464749362499862  6.8476564204054116  3.0491788575099661
  0.4517006523911959 -0.9494808317642296  3.0491788575099652
  0.4517006523911959  6.8476564204054116  2.8489967311312174
  5.4464749362499862 -0.9494808317642293  2.8489967311312174
  3.0491788575099652  5.4464749362499854  6.8476564204054124
  3.0491788575099652  0.4517006523911961 -0.9494808317642294
  2.8489967311312170  0.4517006523911961  6.8476564204054116
  2.8489967311312170  5.4464749362499854 -0.9494808317642290
  6.8476564204054116  3.0491788575099656  5.4464749362499871
 -0.9494808317642296  3.0491788575099652  0.4517006523911960
  6.8476564204054116  2.8489967311312174  0.4517006523911965
 -0.9494808317642296  2.8489967311312170  5.4464749362499854
  1.4160950900041842  5.0852153213710114  5.1809952264253507
  4.4820804986369982  0.8129602672701713  5.1809952264253498
  4.4820804986369982  5.0852153213710114  0.7171803622158318
  1.4160950900041842  0.8129602672701712  0.7171803622158314
  5.1809952264253507  1.4160950900041844  5.0852153213710114
  5.1809952264253507  4.4820804986369982  0.8129602672701717
  0.7171803622158314  4.4820804986369982  5.0852153213710114
  0.7171803622158314  1.4160950900041842  0.8129602672701712
  5.0852153213710114  5.1809952264253498  1.4160950900041849
  0.8129602672701711  5.1809952264253498  4.4820804986369982
  5.0852153213710114  0.7171803622158317  4.4820804986369982
  0.8129602672701711  0.7171803622158313  1.4160950900041842
  4.3651828843247751  2.1361275270504203  2.2319074321047601
  1.5329927043164069  3.7620480615907623  2.2319074321047601
  1.5329927043164069  2.1361275270504194  3.6662681565364230
  4.3651828843247751  3.7620480615907628  3.6662681565364230
  2.2319074321047596  4.3651828843247751  2.1361275270504203
  2.2319074321047596  1.5329927043164071  3.7620480615907628
  3.6662681565364226  1.5329927043164071  2.1361275270504203
  3.6662681565364226  4.3651828843247751  3.7620480615907628
  2.1361275270504194  2.2319074321047596  4.3651828843247751
  3.7620480615907623  2.2319074321047601  1.5329927043164073
  2.1361275270504194  3.6662681565364226  1.5329927043164073
  3.7620480615907623  3.6662681565364230  4.3651828843247760
  5.2048895493762330  4.2073223160089599  2.1897654961402933
  0.6932860392649494  1.6908532726322225  2.1897654961402933
  0.6932860392649494  4.2073223160089599  3.7084100925008885
  5.2048895493762330  1.6908532726322227  3.7084100925008894
  2.1897654961402933  5.2048895493762330  4.2073223160089599
  2.1897654961402933  0.6932860392649495  1.6908532726322227
  3.7084100925008889  0.6932860392649496  4.2073223160089599
  3.7084100925008889  5.2048895493762330  1.6908532726322230
  4.2073223160089599  2.1897654961402937  5.2048895493762330
  1.6908532726322225  2.1897654961402928  0.6932860392649496
  4.2073223160089599  3.7084100925008894  0.6932860392649498
  1.6908532726322225  3.7084100925008889  5.2048895493762330
  2.2558017550556415  1.2582345216883688  5.1388532904608848
  3.6423738335855407  4.6399410669528125  5.1388532904608857
  3.6423738335855407  1.2582345216883686  0.7593222981802981
  2.2558017550556415  4.6399410669528125  0.7593222981802982
  5.1388532904608848  2.2558017550556420  1.2582345216883688
  5.1388532904608848  3.6423738335855411  4.6399410669528143
  0.7593222981802977  3.6423738335855407  1.2582345216883686
  0.7593222981802977  2.2558017550556415  4.6399410669528125
  1.2582345216883684  5.1388532904608848  2.2558017550556420
  4.6399410669528125  5.1388532904608848  3.6423738335855411
  1.2582345216883684  0.7593222981802978  3.6423738335855407
  4.6399410669528125  0.7593222981802981  2.2558017550556420
