Ca  H 
 1.0000000000000000
     9.7221029275046593    0.0000000000000006    0.0000000000000006
     0.0000000000000000    9.7221029275046593    0.0000000000000006
     0.0000000000000000    0.0000000000000000    9.7221029275046593
 Ca  H  
   2  72
Cartesian
  0.0000000000000000  0.0000000000000000  0.0000000000000000
  4.8610514637523297  4.8610514637523288  4.8610514637523305
  3.8557752803843859  4.3239167999711094  1.0139753043283766
 -3.8557752803843859 -4.3239167999711094  1.0139753043283755
 -3.8557752803843859  4.3239167999711086 -1.0139753043283759
  3.8557752803843859 -4.3239167999711086 -1.0139753043283761
  1.0139753043283761  3.8557752803843859  4.3239167999711094
  1.0139753043283761 -3.8557752803843859 -4.3239167999711094
 -1.0139753043283761 -3.8557752803843859  4.3239167999711086
 -1.0139753043283761  3.8557752803843859 -4.3239167999711094
  4.3239167999711094  1.0139753043283763  3.8557752803843863
 -4.3239167999711094  1.0139753043283757 -3.8557752803843854
  4.3239167999711094 -1.0139753043283757 -3.8557752803843854
 -4.3239167999711094 -1.0139753043283763  3.8557752803843854
  8.7168267441367160  9.1849682637234373  5.8750267680807067
  1.0052761833679438  0.5371346637812205  5.8750267680807058
  1.0052761833679438  9.1849682637234391  3.8470761594239540
  8.7168267441367160  0.5371346637812210  3.8470761594239540
  5.8750267680807058  8.7168267441367160  9.1849682637234391
  5.8750267680807058  1.0052761833679442  0.5371346637812209
  3.8470761594239535  1.0052761833679440  9.1849682637234391
  3.8470761594239535  8.7168267441367160  0.5371346637812212
  9.1849682637234391  5.8750267680807067  8.7168267441367160
  0.5371346637812204  5.8750267680807058  1.0052761833679442
  9.1849682637234391  3.8470761594239540  1.0052761833679447
  0.5371346637812204  3.8470761594239535  8.7168267441367160
  6.0256316211551892  4.8727895690273035  2.0895321368111475
  3.6964713063494687  4.8493133584773549  2.0895321368111470
  3.6964713063494687  4.8727895690273035  7.6325707906935127
  6.0256316211551892  4.8493133584773567  7.6325707906935136
  2.0895321368111466  6.0256316211551901  4.8727895690273035
  2.0895321368111466  3.6964713063494683  4.8493133584773549
  7.6325707906935127  3.6964713063494692  4.8727895690273044
  7.6325707906935127  6.0256316211551910  4.8493133584773567
  4.8727895690273035  2.0895321368111470  6.0256316211551901
  4.8493133584773558  2.0895321368111470  3.6964713063494692
  4.8727895690273035  7.6325707906935127  3.6964713063494696
  4.8493133584773558  7.6325707906935127  6.0256316211551910
  1.1645801574028609  0.0117381052749739  6.9505836005634762
  8.5575227701017980  9.7103648222296837  6.9505836005634762
  8.5575227701017980  0.0117381052749743  2.7715193269411835
  1.1645801574028609  9.7103648222296854  2.7715193269411835
  6.9505836005634762  1.1645801574028614  0.0117381052749743
  6.9505836005634762  8.5575227701017997  9.7103648222296872
  2.7715193269411831  8.5575227701017980  0.0117381052749745
  2.7715193269411831  1.1645801574028611  9.7103648222296837
  0.0117381052749738  6.9505836005634762  1.1645801574028614
  9.7103648222296854  6.9505836005634771  8.5575227701017997
  0.0117381052749738  2.7715193269411831  8.5575227701017980
  9.7103648222296854  2.7715193269411835  1.1645801574028614
  9.5501221861643479  8.4869812611613380  7.9237594193872258
  0.1719807413403116  1.2351216663433193  7.9237594193872258
  0.1719807413403116  8.4869812611613398  1.7983435081174337
  9.5501221861643479  1.2351216663433200  1.7983435081174339
  7.9237594193872258  9.5501221861643462  8.4869812611613415
  7.9237594193872258  0.1719807413403120  1.2351216663433198
  1.7983435081174333  0.1719807413403117  8.4869812611613398
  1.7983435081174333  9.5501221861643479  1.2351216663433200
  8.4869812611613398  7.9237594193872267  9.5501221861643479
  1.2351216663433191  7.9237594193872258  0.1719807413403121
  8.4869812611613398  1.7983435081174337  0.1719807413403122
  1.2351216663433191  1.7983435081174333  9.5501221861643479
  4.6890707224120183  3.6259297974090106  3.0627079556348962
  5.0330322050926410  6.0961731300956492  3.0627079556348971
  5.0330322050926410  3.6259297974090106  6.6593949718697631
  4.6890707224120183  6.0961731300956492  6.6593949718697640
  3.0627079556348962  4.6890707224120183  3.6259297974090106
  3.0627079556348962  5.0330322050926402  6.0961731300956492
  6.6593949718697631  5.0330322050926410  3.6259297974090110
  6.6593949718697631  4.6890707224120174  6.0961731300956501
  3.6259297974090101  3.0627079556348962  4.6890707224120174
  6.0961731300956492  3.0627079556348966  5.0330322050926419
  3.6259297974090101  6.6593949718697631  5.0330322050926419
  6.0961731300956492  6.6593949718697631  4.6890707224120192
