Ca  H 
 1.0000000000000000
     5.5057037404344307    0.0000000000000003    0.0000000000000003
     0.0000000000000000    5.5057037404344307    0.0000000000000003
     0.0000000000000000    0.0000000000000000    5.5057037404344307
 Ca  H  
   2  54
Cartesian
  0.0000000000000000  0.0000000000000000  0.0000000000000000
  2.7528518702172153  2.7528518702172149  2.7528518702172158
  1.7254875977175588  4.0919079386900261  3.2577057592103564
 -1.7254875977175588 -4.0919079386900261  3.2577057592103555
 -1.7254875977175588  4.0919079386900261 -3.2577057592103560
  1.7254875977175588 -4.0919079386900261 -3.2577057592103560
  3.2577057592103560  1.7254875977175590  4.0919079386900252
  3.2577057592103560 -1.7254875977175586 -4.0919079386900261
 -3.2577057592103560 -1.7254875977175590  4.0919079386900261
 -3.2577057592103560  1.7254875977175586 -4.0919079386900261
  4.0919079386900261  3.2577057592103560  1.7254875977175592
 -4.0919079386900261  3.2577057592103555 -1.7254875977175588
  4.0919079386900261 -3.2577057592103555 -1.7254875977175588
 -4.0919079386900261 -3.2577057592103560  1.7254875977175583
  4.4783394679347737  6.8447598089072414  6.0105576294275718
  1.0273642724996566 -1.3390560684728106  6.0105576294275709
  1.0273642724996566  6.8447598089072414 -0.5048538889931401
  4.4783394679347737 -1.3390560684728103 -0.5048538889931404
  6.0105576294275700  4.4783394679347737  6.8447598089072423
  6.0105576294275700  1.0273642724996570 -1.3390560684728103
 -0.5048538889931407  1.0273642724996566  6.8447598089072414
 -0.5048538889931407  4.4783394679347737 -1.3390560684728106
  6.8447598089072414  6.0105576294275709  4.4783394679347746
 -1.3390560684728108  6.0105576294275709  1.0273642724996568
  6.8447598089072414 -0.5048538889931402  1.0273642724996570
 -1.3390560684728108 -0.5048538889931407  4.4783394679347737
  4.6599344706548429  0.3725795138290234  1.8555167513983903
  0.8457692697795882  5.1331242266054078  1.8555167513983906
  0.8457692697795882  0.3725795138290232  3.6501869890360403
  4.6599344706548429  5.1331242266054078  3.6501869890360408
  1.8555167513983901  4.6599344706548429  0.3725795138290235
  1.8555167513983901  0.8457692697795883  5.1331242266054078
  3.6501869890360403  0.8457692697795884  0.3725795138290234
  3.6501869890360403  4.6599344706548429  5.1331242266054078
  0.3725795138290232  1.8555167513983899  4.6599344706548429
  5.1331242266054078  1.8555167513983903  0.8457692697795887
  0.3725795138290232  3.6501869890360399  0.8457692697795884
  5.1331242266054078  3.6501869890360408  4.6599344706548438
  1.9070826004376271  3.1254313840462387  4.6083686216156048
  3.5986211399968036  2.3802723563881920  4.6083686216156048
  3.5986211399968036  3.1254313840462387  0.8973351188188256
  1.9070826004376271  2.3802723563881920  0.8973351188188253
  4.6083686216156057  1.9070826004376273  3.1254313840462391
  4.6083686216156057  3.5986211399968040  2.3802723563881925
  0.8973351188188251  3.5986211399968036  3.1254313840462391
  0.8973351188188251  1.9070826004376271  2.3802723563881920
  3.1254313840462387  4.6083686216156057  1.9070826004376276
  2.3802723563881920  4.6083686216156057  3.5986211399968040
  3.1254313840462387  0.8973351188188253  3.5986211399968040
  2.3802723563881920  0.8973351188188252  1.9070826004376273
  0.0000000000000000  2.7528518702172153  2.7528518702172149
  2.7528518702172153  0.0000000000000002  2.7528518702172149
  2.7528518702172153  2.7528518702172149  0.0000000000000003
  2.7528518702172153  0.0000000000000002  0.0000000000000002
  0.0000000000000000  2.7528518702172153  0.0000000000000002
  0.0000000000000000  0.0000000000000000  2.7528518702172153
