Ca  H 
 1.0000000000000000
     5.3972217734446808    0.0000000000000003    0.0000000000000003
     0.0000000000000000    5.3972217734446808    0.0000000000000003
     0.0000000000000000    0.0000000000000000    5.3972217734446808
 Ca  H  
   2  56
Cartesian
  0.0000000000000000  0.0000000000000000  0.0000000000000000
  2.6986108867223404  2.6986108867223404  2.6986108867223408
  0.3786016986938931  1.5570380037637512  5.1472933880973955
 -0.3786016986938931 -1.5570380037637512  5.1472933880973963
 -0.3786016986938931  1.5570380037637508 -5.1472933880973963
  0.3786016986938931 -1.5570380037637508 -5.1472933880973955
  5.1472933880973963  0.3786016986938935  1.5570380037637512
  5.1472933880973963 -0.3786016986938928 -1.5570380037637506
 -5.1472933880973963 -0.3786016986938935  1.5570380037637503
 -5.1472933880973963  0.3786016986938928 -1.5570380037637510
  1.5570380037637508  5.1472933880973955  0.3786016986938935
 -1.5570380037637508  5.1472933880973963 -0.3786016986938929
  1.5570380037637508 -5.1472933880973963 -0.3786016986938933
 -1.5570380037637508 -5.1472933880973955  0.3786016986938927
  3.0772125854162335  4.2556488904860919  7.8459042748197367
  2.3200091880284472  1.1415728829585898  7.8459042748197358
  2.3200091880284472  4.2556488904860919 -2.4486825013750551
  3.0772125854162335  1.1415728829585898 -2.4486825013750546
  7.8459042748197358  3.0772125854162340  4.2556488904860919
  7.8459042748197358  2.3200091880284477  1.1415728829585903
 -2.4486825013750555  2.3200091880284477  4.2556488904860910
 -2.4486825013750555  3.0772125854162340  1.1415728829585896
  4.2556488904860910  7.8459042748197358  3.0772125854162349
  1.1415728829585896  7.8459042748197358  2.3200091880284477
  4.2556488904860910 -2.4486825013750546  2.3200091880284472
  1.1415728829585896 -2.4486825013750555  3.0772125854162340
  2.0544979084543153  4.3428905373903977  4.1852939478227551
  3.3427238649903659  1.0543312360542838  4.1852939478227551
  3.3427238649903659  4.3428905373903977  1.2119278256219268
  2.0544979084543153  1.0543312360542840  1.2119278256219268
  4.1852939478227542  2.0544979084543158  4.3428905373903977
  4.1852939478227542  3.3427238649903659  1.0543312360542840
  1.2119278256219266  3.3427238649903659  4.3428905373903977
  1.2119278256219266  2.0544979084543158  1.0543312360542838
  4.3428905373903968  4.1852939478227551  2.0544979084543162
  1.0543312360542836  4.1852939478227542  3.3427238649903659
  4.3428905373903968  1.2119278256219266  3.3427238649903659
  1.0543312360542836  1.2119278256219264  2.0544979084543158
  4.7531087951766562  1.6442796506680570  1.4866830611004145
  0.6441129782680248  3.7529421227766240  1.4866830611004143
  0.6441129782680248  1.6442796506680568  3.9105387123442674
  4.7531087951766562  3.7529421227766244  3.9105387123442679
  1.4866830611004140  4.7531087951766562  1.6442796506680573
  1.4866830611004140  0.6441129782680249  3.7529421227766240
  3.9105387123442665  0.6441129782680250  1.6442796506680570
  3.9105387123442665  4.7531087951766562  3.7529421227766244
  1.6442796506680570  1.4866830611004143  4.7531087951766562
  3.7529421227766240  1.4866830611004143  0.6441129782680252
  1.6442796506680570  3.9105387123442674  0.6441129782680252
  3.7529421227766240  3.9105387123442670  4.7531087951766571
  3.5530319355907864  3.5530319355907869  3.5530319355907869
  1.8441898378538946  1.8441898378538946  3.5530319355907873
  1.8441898378538946  3.5530319355907864  1.8441898378538946
  3.5530319355907864  1.8441898378538948  1.8441898378538946
  0.8544210488684461  0.8544210488684461  0.8544210488684462
  4.5428007245762343  4.5428007245762352  0.8544210488684466
  4.5428007245762343  0.8544210488684464  4.5428007245762352
  0.8544210488684461  4.5428007245762352  4.5428007245762352
