Ca  H 
 1.0000000000000000
     4.7026290278463012    0.0000000000000003    0.0000000000000003
     0.0000000000000000    4.7026290278463012    0.0000000000000003
     0.0000000000000000    0.0000000000000000    4.7026290278463012
 Ca  H  
   2  28
Cartesian
  0.0000000000000000  0.0000000000000000  0.0000000000000000
  2.3513145139231506  2.3513145139231506  2.3513145139231511
  3.1823266791053944  0.0000000000000002  0.0000000000000002
 -3.1823266791053944 -0.0000000000000002 -0.0000000000000002
  0.0000000000000000  3.1823266791053944  0.0000000000000002
  0.0000000000000000 -3.1823266791053944 -0.0000000000000002
  0.0000000000000000  0.0000000000000000  3.1823266791053944
  0.0000000000000000  0.0000000000000000 -3.1823266791053944
  5.5336411930285463  2.3513145139231511  2.3513145139231511
 -0.8310121651822437  2.3513145139231506  2.3513145139231506
  2.3513145139231506  5.5336411930285454  2.3513145139231511
  2.3513145139231506 -0.8310121651822436  2.3513145139231506
  2.3513145139231506  2.3513145139231506  5.5336411930285454
  2.3513145139231506  2.3513145139231506 -0.8310121651822434
  3.9963082629116671  3.9963082629116675  3.9963082629116675
  0.7063207649346340  0.7063207649346340  3.9963082629116671
  0.7063207649346340  3.9963082629116671  0.7063207649346344
  3.9963082629116671  0.7063207649346344  0.7063207649346344
  1.6449937489885165  1.6449937489885165  1.6449937489885167
  3.0576352788577847  3.0576352788577847  1.6449937489885169
  3.0576352788577847  1.6449937489885167  3.0576352788577852
  1.6449937489885165  3.0576352788577847  3.0576352788577852
  1.1742649851760645  1.1742649851760647  1.1742649851760647
  3.5283640426702365  3.5283640426702365  1.1742649851760649
  3.5283640426702365  1.1742649851760647  3.5283640426702370
  1.1742649851760645  3.5283640426702365  3.5283640426702370
  3.5255794990992153  3.5255794990992153  3.5255794990992158
  1.1770495287470861  1.1770495287470861  3.5255794990992153
  1.1770495287470861  3.5255794990992153  1.1770495287470863
  3.5255794990992153  1.1770495287470863  1.1770495287470863
