Ca  H 
 1.0000000000000000
     5.4625108492050076    0.0000000000000003    0.0000000000000003
     0.0000000000000000    5.4625108492050076    0.0000000000000003
     0.0000000000000000    0.0000000000000000    5.4625108492050076
 Ca  H  
   2  28
Cartesian
  0.0000000000000000  0.0000000000000000  0.0000000000000000
  2.7312554246025038  2.7312554246025034  2.7312554246025043
  4.2753870864504604  0.0000000000000003  0.0000000000000003
 -4.2753870864504604 -0.0000000000000003 -0.0000000000000003
  0.0000000000000000  4.2753870864504604  0.0000000000000003
  0.0000000000000000 -4.2753870864504604 -0.0000000000000003
  0.0000000000000000  0.0000000000000000  4.2753870864504604
  0.0000000000000000  0.0000000000000000 -4.2753870864504604
  7.0066425110529647  2.7312554246025043  2.7312554246025038
 -1.5441316618479570  2.7312554246025038  2.7312554246025038
  2.7312554246025038  7.0066425110529647  2.7312554246025038
  2.7312554246025038 -1.5441316618479568  2.7312554246025038
  2.7312554246025038  2.7312554246025034  7.0066425110529647
  2.7312554246025038  2.7312554246025034 -1.5441316618479566
  4.5057754211658727  4.5057754211658727  4.5057754211658727
  0.9567354280391352  0.9567354280391354  4.5057754211658727
  0.9567354280391352  4.5057754211658727  0.9567354280391356
  4.5057754211658727  0.9567354280391355  0.9567354280391356
  1.7745199965633687  1.7745199965633687  1.7745199965633689
  3.6879908526416392  3.6879908526416396  1.7745199965633691
  3.6879908526416392  1.7745199965633689  3.6879908526416396
  1.7745199965633687  3.6879908526416392  3.6879908526416396
  0.9526858256083685  0.9526858256083686  0.9526858256083686
  4.5098250235966395  4.5098250235966395  0.9526858256083690
  4.5098250235966395  0.9526858256083687  4.5098250235966395
  0.9526858256083685  4.5098250235966395  4.5098250235966395
  3.6839412502108724  3.6839412502108728  3.6839412502108728
  1.7785695989941352  1.7785695989941352  3.6839412502108724
  1.7785695989941352  3.6839412502108724  1.7785695989941357
  3.6839412502108724  1.7785695989941355  1.7785695989941357
