Ca  H 
 1.0000000000000000
     9.8168201820449354    0.0000000000000006    0.0000000000000006
     0.0000000000000000    9.8168201820449354    0.0000000000000006
     0.0000000000000000    0.0000000000000000    9.8168201820449354
 Ca  H  
   6  50
Cartesian
  0.0000000000000000  4.9084100910224677  4.9084100910224677
  4.9084100910224677  0.0000000000000003  4.9084100910224677
  4.9084100910224677  4.9084100910224677  0.0000000000000006
  4.9084100910224677  0.0000000000000003  0.0000000000000003
  0.0000000000000000  4.9084100910224677  0.0000000000000003
  0.0000000000000000  0.0000000000000000  4.9084100910224677
  4.5214072429451866  1.7684124423842689  0.8710122970239564
 -4.5214072429451866 -1.7684124423842689  0.8710122970239558
 -4.5214072429451866  1.7684124423842680 -0.8710122970239563
  4.5214072429451866 -1.7684124423842680 -0.8710122970239559
  0.8710122970239562  4.5214072429451866  1.7684124423842684
  0.8710122970239562 -4.5214072429451866 -1.7684124423842684
 -0.8710122970239562 -4.5214072429451866  1.7684124423842680
 -0.8710122970239562  4.5214072429451866 -1.7684124423842680
  1.7684124423842682  0.8710122970239563  4.5214072429451866
 -1.7684124423842682  0.8710122970239560 -4.5214072429451866
  1.7684124423842682 -0.8710122970239560 -4.5214072429451866
 -1.7684124423842682 -0.8710122970239563  4.5214072429451875
  9.4298173339676552  6.6768225334067370  5.7794223880464246
  0.3870028480772812  3.1399976486381993  5.7794223880464237
  0.3870028480772812  6.6768225334067361  4.0373977939985117
  9.4298173339676552  3.1399976486382006  4.0373977939985135
  5.7794223880464237  9.4298173339676552  6.6768225334067370
  5.7794223880464237  0.3870028480772815  3.1399976486381997
  4.0373977939985117  0.3870028480772814  6.6768225334067361
  4.0373977939985117  9.4298173339676552  3.1399976486382002
  6.6768225334067361  5.7794223880464246  9.4298173339676552
  3.1399976486381993  5.7794223880464237  0.3870028480772817
  6.6768225334067361  4.0373977939985117  0.3870028480772818
  3.1399976486381993  4.0373977939985117  9.4298173339676552
  0.1661587154827084  1.7633986385380731  3.9269102232814492
  9.6506614665622266  8.0534215435068628  3.9269102232814501
  9.6506614665622266  1.7633986385380735  5.8899099587634884
  0.1661587154827084  8.0534215435068628  5.8899099587634876
  3.9269102232814497  0.1661587154827087  1.7633986385380733
  3.9269102232814497  9.6506614665622266  8.0534215435068628
  5.8899099587634867  9.6506614665622266  1.7633986385380738
  5.8899099587634867  0.1661587154827088  8.0534215435068628
  1.7633986385380731  3.9269102232814492  0.1661587154827088
  8.0534215435068628  3.9269102232814501  9.6506614665622283
  1.7633986385380731  5.8899099587634867  9.6506614665622283
  8.0534215435068628  5.8899099587634876  0.1661587154827093
  5.0745688065051757  6.6718087295605404  8.8353203143039174
  4.7422513755397597  3.1450114524843955  8.8353203143039174
  4.7422513755397597  6.6718087295605404  0.9814998677410194
  5.0745688065051757  3.1450114524843955  0.9814998677410194
  8.8353203143039174  5.0745688065051766  6.6718087295605413
  8.8353203143039174  4.7422513755397606  3.1450114524843964
  0.9814998677410187  4.7422513755397597  6.6718087295605413
  0.9814998677410187  5.0745688065051775  3.1450114524843960
  6.6718087295605404  8.8353203143039174  5.0745688065051784
  3.1450114524843951  8.8353203143039174  4.7422513755397606
  6.6718087295605404  0.9814998677410193  4.7422513755397606
  3.1450114524843951  0.9814998677410190  5.0745688065051757
  0.0000000000000000  0.0000000000000000  0.0000000000000000
  4.9084100910224677  4.9084100910224677  4.9084100910224686
