Ca  H 
 1.0000000000000000
     5.6844439554806803    0.0000000000000003    0.0000000000000003
     0.0000000000000000    5.6844439554806803    0.0000000000000003
     0.0000000000000000    0.0000000000000000    5.6844439554806803
 Ca  H  
   2  54
Cartesian
  0.0000000000000000  0.0000000000000000  0.0000000000000000
  2.8422219777403401  2.8422219777403401  2.8422219777403406
  3.0686438553578013  4.5088082007208543  2.1954340003801618
 -3.0686438553578013 -4.5088082007208543  2.1954340003801605
 -3.0686438553578013  4.5088082007208543 -2.1954340003801609
  3.0686438553578013 -4.5088082007208543 -2.1954340003801613
  2.1954340003801609  3.0686438553578013  4.5088082007208543
  2.1954340003801609 -3.0686438553578013 -4.5088082007208543
 -2.1954340003801609 -3.0686438553578013  4.5088082007208552
 -2.1954340003801609  3.0686438553578013 -4.5088082007208543
  4.5088082007208543  2.1954340003801613  3.0686438553578017
 -4.5088082007208543  2.1954340003801605 -3.0686438553578013
  4.5088082007208543 -2.1954340003801605 -3.0686438553578013
 -4.5088082007208543 -2.1954340003801613  3.0686438553578008
  5.9108658330981418  7.3510301784611949  5.0376559781205019
 -0.2264218776174612 -1.6665862229805142  5.0376559781205010
 -0.2264218776174612  7.3510301784611949  0.6467879773601795
  5.9108658330981418 -1.6665862229805137  0.6467879773601792
  5.0376559781205010  5.9108658330981418  7.3510301784611958
  5.0376559781205010 -0.2264218776174609 -1.6665862229805140
  0.6467879773601790 -0.2264218776174611  7.3510301784611949
  0.6467879773601790  5.9108658330981418 -1.6665862229805137
  7.3510301784611949  5.0376559781205019  5.9108658330981427
 -1.6665862229805142  5.0376559781205010 -0.2264218776174610
  7.3510301784611949  0.6467879773601795 -0.2264218776174607
 -1.6665862229805142  0.6467879773601789  5.9108658330981418
  1.9139579242224711  5.2445205881481902  2.4281812985352844
  3.7704860312582094  0.4399233673324907  2.4281812985352849
  3.7704860312582094  5.2445205881481902  3.2562626569453967
  1.9139579242224711  0.4399233673324905  3.2562626569453963
  2.4281812985352840  1.9139579242224714  5.2445205881481902
  2.4281812985352840  3.7704860312582094  0.4399233673324908
  3.2562626569453963  3.7704860312582094  5.2445205881481902
  3.2562626569453963  1.9139579242224714  0.4399233673324908
  5.2445205881481902  2.4281812985352849  1.9139579242224716
  0.4399233673324904  2.4281812985352840  3.7704860312582094
  5.2445205881481902  3.2562626569453967  3.7704860312582098
  0.4399233673324904  3.2562626569453963  1.9139579242224714
  4.7561799019628115  2.4022986104078501  5.2704032762756237
  0.9282640535178690  3.2821453450728306  5.2704032762756237
  0.9282640535178690  2.4022986104078496  0.4140406792050564
  4.7561799019628115  3.2821453450728311  0.4140406792050567
  5.2704032762756237  4.7561799019628115  2.4022986104078496
  5.2704032762756237  0.9282640535178693  3.2821453450728311
  0.4140406792050562  0.9282640535178690  2.4022986104078496
  0.4140406792050562  4.7561799019628115  3.2821453450728311
  2.4022986104078496  5.2704032762756245  4.7561799019628124
  3.2821453450728306  5.2704032762756245  0.9282640535178696
  2.4022986104078496  0.4140406792050564  0.9282640535178692
  3.2821453450728306  0.4140406792050564  4.7561799019628115
  0.0000000000000000  2.8422219777403401  2.8422219777403401
  2.8422219777403401  0.0000000000000002  2.8422219777403401
  2.8422219777403401  2.8422219777403401  0.0000000000000003
  2.8422219777403401  0.0000000000000002  0.0000000000000002
  0.0000000000000000  2.8422219777403401  0.0000000000000002
  0.0000000000000000  0.0000000000000000  2.8422219777403401
