Ca  H 
 1.0000000000000000
     8.1525140702919661    0.0000000000000005    0.0000000000000005
     0.0000000000000000    8.1525140702919661    0.0000000000000005
     0.0000000000000000    0.0000000000000000    8.1525140702919661
 Ca  H  
   6  72
Cartesian
  0.0000000000000000  4.0762570351459830  4.0762570351459821
  4.0762570351459830  0.0000000000000002  4.0762570351459821
  4.0762570351459830  4.0762570351459821  0.0000000000000005
  4.0762570351459830  0.0000000000000002  0.0000000000000002
  0.0000000000000000  4.0762570351459830  0.0000000000000002
  0.0000000000000000  0.0000000000000000  4.0762570351459830
  1.7497689786174648  2.4053366311075965  7.2901348562139505
 -1.7497689786174648 -2.4053366311075965  7.2901348562139505
 -1.7497689786174648  2.4053366311075965 -7.2901348562139505
  1.7497689786174648 -2.4053366311075965 -7.2901348562139505
  7.2901348562139505  1.7497689786174653  2.4053366311075970
  7.2901348562139505 -1.7497689786174644 -2.4053366311075961
 -7.2901348562139505 -1.7497689786174653  2.4053366311075961
 -7.2901348562139505  1.7497689786174644 -2.4053366311075970
  2.4053366311075965  7.2901348562139505  1.7497689786174655
 -2.4053366311075965  7.2901348562139505 -1.7497689786174646
  2.4053366311075965 -7.2901348562139505 -1.7497689786174651
 -2.4053366311075965 -7.2901348562139505  1.7497689786174642
  5.8260260137634479  6.4815936662535796 11.3663918913599336
  2.3264880565285182  1.6709204040383867 11.3663918913599336
  2.3264880565285182  6.4815936662535796 -3.2138778210679670
  5.8260260137634479  1.6709204040383869 -3.2138778210679670
 11.3663918913599336  5.8260260137634488  6.4815936662535805
 11.3663918913599336  2.3264880565285191  1.6709204040383874
 -3.2138778210679675  2.3264880565285182  6.4815936662535796
 -3.2138778210679675  5.8260260137634479  1.6709204040383869
  6.4815936662535796 11.3663918913599336  5.8260260137634488
  1.6709204040383865 11.3663918913599336  2.3264880565285191
  6.4815936662535796 -3.2138778210679670  2.3264880565285182
  1.6709204040383865 -3.2138778210679675  5.8260260137634479
  1.5379659871383198  4.3410162370692262  4.4142858259239812
  6.6145480831536458  3.8114978332227403  4.4142858259239821
  6.6145480831536458  4.3410162370692262  3.7382282443679857
  1.5379659871383198  3.8114978332227398  3.7382282443679853
  4.4142858259239812  1.5379659871383200  4.3410162370692262
  4.4142858259239812  6.6145480831536458  3.8114978332227407
  3.7382282443679848  6.6145480831536458  4.3410162370692271
  3.7382282443679848  1.5379659871383200  3.8114978332227403
  4.3410162370692262  4.4142858259239812  1.5379659871383202
  3.8114978332227398  4.4142858259239812  6.6145480831536467
  4.3410162370692262  3.7382282443679853  6.6145480831536467
  3.8114978332227398  3.7382282443679853  1.5379659871383202
  5.6142230222843033  0.2647592019232437  0.3380287907779984
  2.5382910480076633  7.8877548683687229  0.3380287907779987
  2.5382910480076633  0.2647592019232435  7.8144852795139679
  5.6142230222843033  7.8877548683687229  7.8144852795139688
  0.3380287907779981  5.6142230222843033  0.2647592019232438
  0.3380287907779981  2.5382910480076633  7.8877548683687229
  7.8144852795139679  2.5382910480076637  0.2647592019232440
  7.8144852795139679  5.6142230222843041  7.8877548683687237
  0.2647592019232434  0.3380287907779981  5.6142230222843033
  7.8877548683687229  0.3380287907779986  2.5382910480076637
  0.2647592019232434  7.8144852795139679  2.5382910480076637
  7.8877548683687229  7.8144852795139688  5.6142230222843041
  3.3843248251734166  1.4731131128210213  7.7655993281144911
  4.7681892451185490  6.6794009574709445  7.7655993281144919
  4.7681892451185490  1.4731131128210213  0.3869147421774755
  3.3843248251734166  6.6794009574709445  0.3869147421774757
  7.7655993281144911  3.3843248251734170  1.4731131128210220
  7.7655993281144911  4.7681892451185499  6.6794009574709454
  0.3869147421774751  4.7681892451185490  1.4731131128210213
  0.3869147421774751  3.3843248251734166  6.6794009574709445
  1.4731131128210211  7.7655993281144911  3.3843248251734170
  6.6794009574709445  7.7655993281144911  4.7681892451185499
  1.4731131128210211  0.3869147421774752  4.7681892451185490
  6.6794009574709445  0.3869147421774755  3.3843248251734170
  7.4605818603194001  5.5493701479670055  3.6893422929685089
  0.6919322099725663  2.6031439223249619  3.6893422929685080
  0.6919322099725663  5.5493701479670046  4.4631717773234580
  7.4605818603194001  2.6031439223249624  4.4631717773234589
  3.6893422929685080  7.4605818603194001  5.5493701479670055
  3.6893422929685080  0.6919322099725665  2.6031439223249624
  4.4631717773234580  0.6919322099725665  5.5493701479670046
  4.4631717773234580  7.4605818603194001  2.6031439223249628
  5.5493701479670046  3.6893422929685085  7.4605818603194010
  2.6031439223249619  3.6893422929685080  0.6919322099725667
  5.5493701479670046  4.4631717773234580  0.6919322099725670
  2.6031439223249619  4.4631717773234580  7.4605818603194001
