Ca  H 
 1.0000000000000000
     6.7569148427822618    0.0000000000000004    0.0000000000000004
     0.0000000000000000    6.7569148427822618    0.0000000000000004
     0.0000000000000000    0.0000000000000000    6.7569148427822618
 Ca  H  
   2  60
Cartesian
  0.0000000000000000  0.0000000000000000  0.0000000000000000
  3.3784574213911309  3.3784574213911309  3.3784574213911314
  1.5124809088064624  0.0000000000000001  0.0000000000000001
  5.2444339339758006  0.0000000000000003  0.0000000000000003
  0.0000000000000000  1.5124809088064624  0.0000000000000001
  0.0000000000000000  5.2444339339758006  0.0000000000000003
  0.0000000000000000  0.0000000000000000  1.5124809088064624
  0.0000000000000000  0.0000000000000000  5.2444339339758006
  4.8909383301975931  3.3784574213911314  3.3784574213911314
  1.8659765125846686  3.3784574213911309  3.3784574213911314
  3.3784574213911309  4.8909383301975939  3.3784574213911314
  3.3784574213911309  1.8659765125846688  3.3784574213911314
  3.3784574213911309  3.3784574213911309  4.8909383301975931
  3.3784574213911309  3.3784574213911309  1.8659765125846690
  0.3790378534669077  4.8201677024052243  5.4965598880777309
 -0.3790378534669077 -4.8201677024052243  5.4965598880777309
 -0.3790378534669077  4.8201677024052243 -5.4965598880777309
  0.3790378534669077 -4.8201677024052243 -5.4965598880777309
  5.4965598880777309  0.3790378534669080  4.8201677024052252
  5.4965598880777309 -0.3790378534669074 -4.8201677024052243
 -5.4965598880777309 -0.3790378534669080  4.8201677024052243
 -5.4965598880777309  0.3790378534669074 -4.8201677024052252
  4.8201677024052243  5.4965598880777309  0.3790378534669083
 -4.8201677024052243  5.4965598880777309 -0.3790378534669077
  4.8201677024052243 -5.4965598880777309 -0.3790378534669078
 -4.8201677024052243 -5.4965598880777309  0.3790378534669072
  3.7574952748580386  8.1986251237963561  8.8750173094688609
  2.9994195679242233 -1.4417102810140934  8.8750173094688609
  2.9994195679242233  8.1986251237963561 -2.1181024666865991
  3.7574952748580386 -1.4417102810140934 -2.1181024666866000
  8.8750173094688609  3.7574952748580390  8.1986251237963561
  8.8750173094688609  2.9994195679242237 -1.4417102810140932
 -2.1181024666866000  2.9994195679242237  8.1986251237963561
 -2.1181024666866000  3.7574952748580386 -1.4417102810140936
  8.1986251237963561  8.8750173094688627  3.7574952748580395
 -1.4417102810140936  8.8750173094688609  2.9994195679242237
  8.1986251237963561 -2.1181024666865995  2.9994195679242242
 -1.4417102810140936 -2.1181024666866000  3.7574952748580386
  5.3671935442048637  6.1655088678986223  5.9267697072690106
  1.3897212985773983  0.5914059748836392  5.9267697072690098
  1.3897212985773983  6.1655088678986232  0.8301451355132530
  5.3671935442048637  0.5914059748836394  0.8301451355132528
  5.9267697072690098  5.3671935442048637  6.1655088678986232
  5.9267697072690098  1.3897212985773988  0.5914059748836396
  0.8301451355132524  1.3897212985773983  6.1655088678986232
  0.8301451355132524  5.3671935442048637  0.5914059748836394
  6.1655088678986223  5.9267697072690098  5.3671935442048655
  0.5914059748836391  5.9267697072690098  1.3897212985773990
  6.1655088678986223  0.8301451355132528  1.3897212985773988
  0.5914059748836391  0.8301451355132524  5.3671935442048637
  1.9887361228137326  2.7870514465074918  2.5483122858778788
  4.7681787199685290  3.9698633962747705  2.5483122858778788
  4.7681787199685290  2.7870514465074927  4.2086025569043839
  1.9887361228137326  3.9698633962747700  4.2086025569043830
  2.5483122858778784  1.9887361228137328  2.7870514465074927
  2.5483122858778784  4.7681787199685290  3.9698633962747705
  4.2086025569043830  4.7681787199685290  2.7870514465074923
  4.2086025569043830  1.9887361228137328  3.9698633962747705
  2.7870514465074918  2.5483122858778788  1.9887361228137328
  3.9698633962747700  2.5483122858778793  4.7681787199685299
  2.7870514465074918  4.2086025569043839  4.7681787199685299
  3.9698633962747700  4.2086025569043830  1.9887361228137330
