Ca  H 
 1.0000000000000000
     5.3938179150212004    0.0000000000000003    0.0000000000000003
     0.0000000000000000    5.3938179150212004    0.0000000000000003
     0.0000000000000000    0.0000000000000000    5.3938179150212004
 Ca  H  
   2  72
Cartesian
  0.0000000000000000  0.0000000000000000  0.0000000000000000
  2.6969089575106002  2.6969089575105998  2.6969089575106007
  2.2489706129155618  4.5790260248040351  1.0383409338516325
 -2.2489706129155618 -4.5790260248040351  1.0383409338516316
 -2.2489706129155618  4.5790260248040351 -1.0383409338516318
  2.2489706129155618 -4.5790260248040351 -1.0383409338516321
  1.0383409338516321  2.2489706129155618  4.5790260248040351
  1.0383409338516321 -2.2489706129155618 -4.5790260248040351
 -1.0383409338516321 -2.2489706129155618  4.5790260248040351
 -1.0383409338516321  2.2489706129155618 -4.5790260248040351
  4.5790260248040351  1.0383409338516323  2.2489706129155622
 -4.5790260248040351  1.0383409338516316 -2.2489706129155618
  4.5790260248040351 -1.0383409338516316 -2.2489706129155618
 -4.5790260248040351 -1.0383409338516323  2.2489706129155618
  4.9458795704261620  7.2759349823146353  3.7352498913622330
  0.4479383445950383 -1.8821170672934349  3.7352498913622321
  0.4479383445950383  7.2759349823146353  1.6585680236589686
  4.9458795704261620 -1.8821170672934346  1.6585680236589684
  3.7352498913622321  4.9458795704261611  7.2759349823146362
  3.7352498913622321  0.4479383445950386 -1.8821170672934346
  1.6585680236589682  0.4479383445950385  7.2759349823146353
  1.6585680236589682  4.9458795704261611 -1.8821170672934344
  7.2759349823146353  3.7352498913622325  4.9458795704261629
 -1.8821170672934349  3.7352498913622321  0.4479383445950385
  7.2759349823146353  1.6585680236589686  0.4479383445950389
 -1.8821170672934349  1.6585680236589679  4.9458795704261620
  2.2071011952424207  3.8547286160017222  1.7884750389569783
  3.1867167197787798  1.5390892990194782  1.7884750389569781
  3.1867167197787798  3.8547286160017222  3.6053428760642228
  2.2071011952424207  1.5390892990194782  3.6053428760642228
  1.7884750389569779  2.2071011952424207  3.8547286160017227
  1.7884750389569779  3.1867167197787798  1.5390892990194782
  3.6053428760642223  3.1867167197787798  3.8547286160017227
  3.6053428760642223  2.2071011952424207  1.5390892990194784
  3.8547286160017222  1.7884750389569781  2.2071011952424211
  1.5390892990194780  1.7884750389569779  3.1867167197787798
  3.8547286160017222  3.6053428760642228  3.1867167197787802
  1.5390892990194780  3.6053428760642223  2.2071011952424211
  4.9040101527530213  1.1578196584911222  4.4853839964675783
  0.4898077622681793  4.2359982565300784  4.4853839964675783
  0.4898077622681793  1.1578196584911222  0.9084339185536224
  4.9040101527530213  4.2359982565300784  0.9084339185536229
  4.4853839964675783  4.9040101527530213  1.1578196584911231
  4.4853839964675783  0.4898077622681796  4.2359982565300784
  0.9084339185536223  0.4898077622681794  1.1578196584911220
  0.9084339185536223  4.9040101527530213  4.2359982565300784
  1.1578196584911222  4.4853839964675783  4.9040101527530213
  4.2359982565300784  4.4853839964675783  0.4898077622681799
  1.1578196584911222  0.9084339185536224  0.4898077622681795
  4.2359982565300784  0.9084339185536225  4.9040101527530213
  3.0189289160169404  0.7213519936025369  5.0183801654140909
  2.3748889990042601  4.6724659214186639  5.0183801654140909
  2.3748889990042601  0.7213519936025368  0.3754377496071101
  3.0189289160169404  4.6724659214186639  0.3754377496071104
  5.0183801654140909  3.0189289160169408  0.7213519936025371
  5.0183801654140909  2.3748889990042605  4.6724659214186639
  0.3754377496071100  2.3748889990042601  0.7213519936025369
  0.3754377496071100  3.0189289160169404  4.6724659214186639
  0.7213519936025367  5.0183801654140909  3.0189289160169408
  4.6724659214186639  5.0183801654140909  2.3748889990042610
  0.7213519936025367  0.3754377496071100  2.3748889990042601
  4.6724659214186639  0.3754377496071102  3.0189289160169408
  0.3220199585063400  3.4182609511131368  2.3214712079034912
  5.0717979565148603  1.9755569639080637  2.3214712079034907
  5.0717979565148603  3.4182609511131372  3.0723467071177106
  0.3220199585063400  1.9755569639080635  3.0723467071177102
  2.3214712079034903  0.3220199585063402  3.4182609511131368
  2.3214712079034903  5.0717979565148594  1.9755569639080639
  3.0723467071177102  5.0717979565148594  3.4182609511131372
  3.0723467071177102  0.3220199585063402  1.9755569639080637
  3.4182609511131368  2.3214712079034907  0.3220199585063404
  1.9755569639080635  2.3214712079034898  5.0717979565148594
  3.4182609511131368  3.0723467071177102  5.0717979565148612
  1.9755569639080635  3.0723467071177102  0.3220199585063404
