Ca  H 
 1.0000000000000000
     7.4284451575089117    0.0000000000000005    0.0000000000000005
     0.0000000000000000    7.4284451575089117    0.0000000000000005
     0.0000000000000000    0.0000000000000000    7.4284451575089117
 Ca  H  
   2  72
Cartesian
  0.0000000000000000  0.0000000000000000  0.0000000000000000
  3.7142225787544558  3.7142225787544563  3.7142225787544563
  4.9472771825606765  3.5311806231089031  2.1235015198300520
 -4.9472771825606765 -3.5311806231089031  2.1235015198300511
 -4.9472771825606765  3.5311806231089027 -2.1235015198300515
  4.9472771825606765 -3.5311806231089027 -2.1235015198300515
  2.1235015198300515  4.9472771825606765  3.5311806231089036
  2.1235015198300515 -4.9472771825606765 -3.5311806231089027
 -2.1235015198300515 -4.9472771825606765  3.5311806231089027
 -2.1235015198300515  4.9472771825606765 -3.5311806231089027
  3.5311806231089031  2.1235015198300511  4.9472771825606756
 -3.5311806231089031  2.1235015198300511 -4.9472771825606765
  3.5311806231089031 -2.1235015198300511 -4.9472771825606765
 -3.5311806231089031 -2.1235015198300511  4.9472771825606765
  8.6614997613151328  7.2454032018633594  5.8377240985845082
 -1.2330546038062207  0.1830419556455527  5.8377240985845074
 -1.2330546038062207  7.2454032018633576  1.5907210589244047
  8.6614997613151328  0.1830419556455533  1.5907210589244047
  5.8377240985845074  8.6614997613151328  7.2454032018633585
  5.8377240985845074 -1.2330546038062202  0.1830419556455531
  1.5907210589244043 -1.2330546038062207  7.2454032018633576
  1.5907210589244043  8.6614997613151328  0.1830419556455535
  7.2454032018633576  5.8377240985845065  8.6614997613151328
  0.1830419556455528  5.8377240985845074 -1.2330546038062202
  7.2454032018633576  1.5907210589244047 -1.2330546038062202
  0.1830419556455528  1.5907210589244043  8.6614997613151328
  4.7794231181787339  2.7009059718215567  6.2332945327765543
  2.6490220393301782  4.7275391856873554  6.2332945327765543
  2.6490220393301782  2.7009059718215558  1.1951506247323580
  4.7794231181787339  4.7275391856873545  1.1951506247323584
  6.2332945327765525  4.7794231181787339  2.7009059718215571
  6.2332945327765525  2.6490220393301787  4.7275391856873563
  1.1951506247323576  2.6490220393301782  2.7009059718215567
  1.1951506247323576  4.7794231181787339  4.7275391856873545
  2.7009059718215562  6.2332945327765534  4.7794231181787339
  4.7275391856873554  6.2332945327765534  2.6490220393301791
  2.7009059718215562  1.1951506247323580  2.6490220393301787
  4.7275391856873554  1.1951506247323580  4.7794231181787339
  1.0652005394242778  6.4151285505760125  2.5190719540220985
  6.3632446180846340  1.0133166069329000  2.5190719540220985
  6.3632446180846340  6.4151285505760125  4.9093732034868145
  1.0652005394242778  1.0133166069328996  4.9093732034868127
  2.5190719540220980  1.0652005394242778  6.4151285505760125
  2.5190719540220980  6.3632446180846340  1.0133166069328998
  4.9093732034868136  6.3632446180846332  6.4151285505760125
  4.9093732034868136  1.0652005394242781  1.0133166069329000
  6.4151285505760125  2.5190719540220985  1.0652005394242783
  1.0133166069328996  2.5190719540220980  6.3632446180846340
  6.4151285505760125  4.9093732034868136  6.3632446180846349
  1.0133166069328996  4.9093732034868136  1.0652005394242781
  6.2209054733007996  4.5247284478243781  1.0307430423635109
  1.2075396842081108  2.9037167096845327  1.0307430423635104
  1.2075396842081108  4.5247284478243781  6.3977021151454014
  6.2209054733007996  2.9037167096845335  6.3977021151454023
  1.0307430423635102  6.2209054733007996  4.5247284478243781
  1.0307430423635102  1.2075396842081110  2.9037167096845327
  6.3977021151454014  1.2075396842081114  4.5247284478243790
  6.3977021151454014  6.2209054733008005  2.9037167096845340
  4.5247284478243772  1.0307430423635104  6.2209054733008005
  2.9037167096845331  1.0307430423635102  1.2075396842081110
  4.5247284478243772  6.3977021151454005  1.2075396842081114
  2.9037167096845331  6.3977021151454005  6.2209054733008013
  2.5066828945463442  0.8105058690699227  4.7449656211179656
  4.9217622629625657  6.6179392884389880  4.7449656211179665
  4.9217622629625657  0.8105058690699229  2.6834795363909461
  2.5066828945463442  6.6179392884389880  2.6834795363909456
  4.7449656211179647  2.5066828945463451  0.8105058690699229
  4.7449656211179647  4.9217622629625666  6.6179392884389898
  2.6834795363909452  4.9217622629625666  0.8105058690699231
  2.6834795363909452  2.5066828945463446  6.6179392884389880
  0.8105058690699225  4.7449656211179647  2.5066828945463451
  6.6179392884389889  4.7449656211179656  4.9217622629625675
  0.8105058690699225  2.6834795363909452  4.9217622629625666
  6.6179392884389889  2.6834795363909461  2.5066828945463451
