Ca  H 
 1.0000000000000000
     8.7108561231377255    0.0000000000000005    0.0000000000000005
     0.0000000000000000    8.7108561231377255    0.0000000000000005
     0.0000000000000000    0.0000000000000000    8.7108561231377255
 Ca  H  
   2  72
Cartesian
  0.0000000000000000  0.0000000000000000  0.0000000000000000
  4.3554280615688628  4.3554280615688628  4.3554280615688645
  1.6183846013639660  0.7175681979316455  8.6461544416566731
 -1.6183846013639660 -0.7175681979316455  8.6461544416566731
 -1.6183846013639660  0.7175681979316452 -8.6461544416566731
  1.6183846013639660 -0.7175681979316452 -8.6461544416566731
  8.6461544416566731  1.6183846013639664  0.7175681979316459
  8.6461544416566731 -1.6183846013639658 -0.7175681979316448
 -8.6461544416566731 -1.6183846013639664  0.7175681979316446
 -8.6461544416566731  1.6183846013639658 -0.7175681979316458
  0.7175681979316453  8.6461544416566731  1.6183846013639667
 -0.7175681979316453  8.6461544416566731 -1.6183846013639658
  0.7175681979316453 -8.6461544416566731 -1.6183846013639664
 -0.7175681979316453 -8.6461544416566731  1.6183846013639653
  5.9738126629328283  5.0729962595005080 13.0015825032255368
  2.7370434602048967  3.6378598636372175 13.0015825032255350
  2.7370434602048967  5.0729962595005080 -4.2907263800878095
  5.9738126629328283  3.6378598636372184 -4.2907263800878095
 13.0015825032255350  5.9738126629328292  5.0729962595005089
 13.0015825032255350  2.7370434602048976  3.6378598636372184
 -4.2907263800878095  2.7370434602048963  5.0729962595005080
 -4.2907263800878095  5.9738126629328283  3.6378598636372175
  5.0729962595005080 13.0015825032255350  5.9738126629328310
  3.6378598636372175 13.0015825032255350  2.7370434602048976
  5.0729962595005080 -4.2907263800878104  2.7370434602048967
  3.6378598636372175 -4.2907263800878095  5.9738126629328283
  1.4700741072376085  6.9058519360664938  3.5406844651017582
  7.2407820159001171  1.8050041870712323  3.5406844651017582
  7.2407820159001171  6.9058519360664947  5.1701716580359687
  1.4700741072376085  1.8050041870712317  5.1701716580359678
  3.5406844651017577  1.4700741072376087  6.9058519360664938
  3.5406844651017577  7.2407820159001171  1.8050041870712326
  5.1701716580359678  7.2407820159001171  6.9058519360664947
  5.1701716580359678  1.4700741072376087  1.8050041870712323
  6.9058519360664938  3.5406844651017582  1.4700741072376093
  1.8050041870712319  3.5406844651017577  7.2407820159001171
  6.9058519360664938  5.1701716580359678  7.2407820159001188
  1.8050041870712319  5.1701716580359678  1.4700741072376091
  5.8255021688064712  2.5504238744976315  7.8961125266706222
  2.8853539543312543  6.1604322486400944  7.8961125266706222
  2.8853539543312543  2.5504238744976315  0.8147435964671053
  5.8255021688064712  6.1604322486400944  0.8147435964671058
  7.8961125266706205  5.8255021688064730  2.5504238744976320
  7.8961125266706205  2.8853539543312547  6.1604322486400962
  0.8147435964671049  2.8853539543312543  2.5504238744976320
  0.8147435964671049  5.8255021688064712  6.1604322486400944
  2.5504238744976311  7.8961125266706205  5.8255021688064730
  6.1604322486400944  7.8961125266706214  2.8853539543312552
  2.5504238744976311  0.8147435964671051  2.8853539543312547
  6.1604322486400944  0.8147435964671054  5.8255021688064712
  7.2540290616103222  0.0888115367333560  2.5860442683187812
  1.4568270615274030  8.6220445864043693  2.5860442683187816
  1.4568270615274030  0.0888115367333557  6.1248118548189447
  7.2540290616103222  8.6220445864043711  6.1248118548189456
  2.5860442683187808  7.2540290616103222  0.0888115367333562
  2.5860442683187808  1.4568270615274033  8.6220445864043693
  6.1248118548189447  1.4568270615274035  0.0888115367333561
  6.1248118548189447  7.2540290616103231  8.6220445864043711
  0.0888115367333556  2.5860442683187808  7.2540290616103222
  8.6220445864043693  2.5860442683187812  1.4568270615274042
  0.0888115367333556  6.1248118548189447  1.4568270615274035
  8.6220445864043693  6.1248118548189465  7.2540290616103231
  2.8986010000414595  4.4442395983022189  6.9414723298876453
  5.8122551230962660  4.2666165248355075  6.9414723298876453
  5.8122551230962660  4.4442395983022180  1.7693837932500827
  2.8986010000414595  4.2666165248355075  1.7693837932500827
  6.9414723298876435  2.8986010000414599  4.4442395983022189
  6.9414723298876435  5.8122551230962660  4.2666165248355084
  1.7693837932500822  5.8122551230962660  4.4442395983022189
  1.7693837932500822  2.8986010000414599  4.2666165248355075
  4.4442395983022180  6.9414723298876435  2.8986010000414604
  4.2666165248355075  6.9414723298876435  5.8122551230962678
  4.4442395983022180  1.7693837932500824  5.8122551230962660
  4.2666165248355075  1.7693837932500824  2.8986010000414599
