Ca  H 
 1.0000000000000000
     5.5879180794093335    0.0000000000000003    0.0000000000000003
     0.0000000000000000    5.5879180794093335    0.0000000000000003
     0.0000000000000000    0.0000000000000000    5.5879180794093335
 Ca  H  
   2  30
Cartesian
  0.0000000000000000  0.0000000000000000  0.0000000000000000
  2.7939590397046667  2.7939590397046667  2.7939590397046672
  1.8926117685322286  1.1166122637689300  3.2540427755347405
 -1.8926117685322286 -1.1166122637689300  3.2540427755347405
 -1.8926117685322286  1.1166122637689295 -3.2540427755347405
  1.8926117685322286 -1.1166122637689295 -3.2540427755347410
  3.2540427755347405  1.8926117685322288  1.1166122637689300
  3.2540427755347405 -1.8926117685322281 -1.1166122637689297
 -3.2540427755347405 -1.8926117685322288  1.1166122637689295
 -3.2540427755347405  1.8926117685322281 -1.1166122637689297
  1.1166122637689295  3.2540427755347405  1.8926117685322286
 -1.1166122637689295  3.2540427755347405 -1.8926117685322281
  1.1166122637689295 -3.2540427755347405 -1.8926117685322286
 -1.1166122637689295 -3.2540427755347405  1.8926117685322281
  4.6865708082368949  3.9105713034735969  6.0480018152394077
  0.9013472711724385  1.6773467759357372  6.0480018152394068
  0.9013472711724385  3.9105713034735965 -0.4600837358300733
  4.6865708082368949  1.6773467759357374 -0.4600837358300732
  6.0480018152394068  4.6865708082368958  3.9105713034735969
  6.0480018152394068  0.9013472711724388  1.6773467759357377
 -0.4600837358300736  0.9013472711724385  3.9105713034735969
 -0.4600837358300736  4.6865708082368949  1.6773467759357374
  3.9105713034735969  6.0480018152394086  4.6865708082368966
  1.6773467759357372  6.0480018152394068  0.9013472711724390
  3.9105713034735969 -0.4600837358300734  0.9013472711724388
  1.6773467759357372 -0.4600837358300735  4.6865708082368949
  0.0000000000000000  2.7939590397046667  2.7939590397046667
  2.7939590397046667  0.0000000000000002  2.7939590397046667
  2.7939590397046667  2.7939590397046667  0.0000000000000003
  2.7939590397046667  0.0000000000000002  0.0000000000000002
  0.0000000000000000  2.7939590397046667  0.0000000000000002
  0.0000000000000000  0.0000000000000000  2.7939590397046667
