Ca  H 
 1.0000000000000000
     8.6833457970264991    0.0000000000000005    0.0000000000000005
     0.0000000000000000    8.6833457970264991    0.0000000000000005
     0.0000000000000000    0.0000000000000000    8.6833457970264991
 Ca  H  
   2  40
Cartesian
  0.0000000000000000  0.0000000000000000  0.0000000000000000
  4.3416728985132496  4.3416728985132496  4.3416728985132504
  1.5173887933350438  0.9381678733489219  3.0032179783341659
 -1.5173887933350438 -0.9381678733489219  3.0032179783341659
 -1.5173887933350438  0.9381678733489217 -3.0032179783341659
  1.5173887933350438 -0.9381678733489217 -3.0032179783341659
  3.0032179783341659  1.5173887933350441  0.9381678733489220
  3.0032179783341659 -1.5173887933350436 -0.9381678733489217
 -3.0032179783341659 -1.5173887933350441  0.9381678733489216
 -3.0032179783341659  1.5173887933350436 -0.9381678733489219
  0.9381678733489218  3.0032179783341659  1.5173887933350441
 -0.9381678733489218  3.0032179783341659 -1.5173887933350436
  0.9381678733489218 -3.0032179783341659 -1.5173887933350441
 -0.9381678733489218 -3.0032179783341659  1.5173887933350436
  5.8590616918482930  5.2798407718621716  7.3448908768474164
  2.8242841051782057  3.4035050251643275  7.3448908768474155
  2.8242841051782057  5.2798407718621716  1.3384549201790841
  5.8590616918482930  3.4035050251643280  1.3384549201790843
  7.3448908768474155  5.8590616918482938  5.2798407718621725
  7.3448908768474155  2.8242841051782062  3.4035050251643280
  1.3384549201790836  2.8242841051782057  5.2798407718621716
  1.3384549201790836  5.8590616918482947  3.4035050251643280
  5.2798407718621716  7.3448908768474155  5.8590616918482938
  3.4035050251643275  7.3448908768474155  2.8242841051782066
  5.2798407718621716  1.3384549201790841  2.8242841051782062
  3.4035050251643275  1.3384549201790839  5.8590616918482930
  1.0989217489490788  1.0989217489490788  1.0989217489490790
  7.5844240480774205  7.5844240480774214  1.0989217489490797
  7.5844240480774205  1.0989217489490792  7.5844240480774214
  1.0989217489490788  7.5844240480774205  7.5844240480774214
  5.4405946474623281  5.4405946474623281  5.4405946474623290
  3.2427511495641705  3.2427511495641705  5.4405946474623281
  3.2427511495641705  5.4405946474623290  3.2427511495641714
  5.4405946474623281  3.2427511495641710  3.2427511495641714
  3.3363237401011898  3.3363237401011898  3.3363237401011903
  5.3470220569253089  5.3470220569253089  3.3363237401011903
  5.3470220569253089  3.3363237401011903  5.3470220569253097
  3.3363237401011898  5.3470220569253089  5.3470220569253097
  7.6779966386144398  7.6779966386144407  7.6779966386144407
  1.0053491584120595  1.0053491584120597  7.6779966386144398
  1.0053491584120595  7.6779966386144398  1.0053491584120600
  7.6779966386144398  1.0053491584120602  1.0053491584120600
