Ca  H 
 1.0000000000000000
     7.0693375706180381    0.0000000000000004    0.0000000000000004
     0.0000000000000000    7.0693375706180381    0.0000000000000004
     0.0000000000000000    0.0000000000000000    7.0693375706180381
 Ca  H  
   2  38
Cartesian
  0.0000000000000000  0.0000000000000000  0.0000000000000000
  3.5346687853090191  3.5346687853090191  3.5346687853090195
  0.8336188213906468  1.4581893790131395  0.2496720045831013
 -0.8336188213906468 -1.4581893790131395  0.2496720045831011
 -0.8336188213906468  1.4581893790131395 -0.2496720045831012
  0.8336188213906468 -1.4581893790131395 -0.2496720045831012
  0.2496720045831012  0.8336188213906468  1.4581893790131395
  0.2496720045831012 -0.8336188213906468 -1.4581893790131395
 -0.2496720045831012 -0.8336188213906468  1.4581893790131395
 -0.2496720045831012  0.8336188213906468 -1.4581893790131395
  1.4581893790131395  0.2496720045831013  0.8336188213906469
 -1.4581893790131395  0.2496720045831011 -0.8336188213906470
  1.4581893790131395 -0.2496720045831011 -0.8336188213906467
 -1.4581893790131395 -0.2496720045831013  0.8336188213906467
  4.3682876066996661  4.9928581643221586  3.7843407898921209
  2.7010499639183725  2.0764794062958796  3.7843407898921209
  2.7010499639183725  4.9928581643221586  3.2849967807259182
  4.3682876066996661  2.0764794062958805  3.2849967807259182
  3.7843407898921204  4.3682876066996661  4.9928581643221603
  3.7843407898921204  2.7010499639183729  2.0764794062958800
  3.2849967807259177  2.7010499639183725  4.9928581643221586
  3.2849967807259177  4.3682876066996661  2.0764794062958800
  4.9928581643221586  3.7843407898921209  4.3682876066996670
  2.0764794062958796  3.7843407898921204  2.7010499639183729
  4.9928581643221586  3.2849967807259182  2.7010499639183729
  2.0764794062958796  3.2849967807259182  4.3682876066996661
  0.0000000000000000  3.5346687853090191  3.5346687853090191
  3.5346687853090191  0.0000000000000002  3.5346687853090191
  3.5346687853090191  3.5346687853090191  0.0000000000000004
  3.5346687853090191  0.0000000000000002  0.0000000000000002
  0.0000000000000000  3.5346687853090191  0.0000000000000002
  0.0000000000000000  0.0000000000000000  3.5346687853090191
  1.5575723811323092  1.5575723811323094  1.5575723811323094
  5.5117651894857289  5.5117651894857289  1.5575723811323099
  5.5117651894857289  1.5575723811323097  5.5117651894857289
  1.5575723811323092  5.5117651894857289  5.5117651894857289
  5.0922411664413287  5.0922411664413287  5.0922411664413296
  1.9770964041767098  1.9770964041767101  5.0922411664413287
  1.9770964041767098  5.0922411664413287  1.9770964041767103
  5.0922411664413287  1.9770964041767101  1.9770964041767103
