Ca  H 
 1.0000000000000000
     8.5516051407365588    0.0000000000000005    0.0000000000000005
     0.0000000000000000    8.5516051407365588    0.0000000000000005
     0.0000000000000000    0.0000000000000000    8.5516051407365588
 Ca  H  
   2  54
Cartesian
  0.0000000000000000  0.0000000000000000  0.0000000000000000
  4.2758025703682794  4.2758025703682785  4.2758025703682803
  4.0634919371355585  5.7734861428263775  4.7221810326804627
 -4.0634919371355585 -5.7734861428263775  4.7221810326804610
 -4.0634919371355585  5.7734861428263775 -4.7221810326804619
  4.0634919371355585 -5.7734861428263775 -4.7221810326804619
  4.7221810326804610  4.0634919371355585  5.7734861428263784
  4.7221810326804610 -4.0634919371355576 -5.7734861428263766
 -4.7221810326804610 -4.0634919371355585  5.7734861428263766
 -4.7221810326804610  4.0634919371355576 -5.7734861428263775
  5.7734861428263766  4.7221810326804619  4.0634919371355585
 -5.7734861428263766  4.7221810326804619 -4.0634919371355585
  5.7734861428263766 -4.7221810326804619 -4.0634919371355576
 -5.7734861428263766 -4.7221810326804619  4.0634919371355576
  8.3392945075038369 10.0492887131946578  8.9979836030487430
  0.2123106332327213 -1.4976835724580986  8.9979836030487412
  0.2123106332327213 10.0492887131946578 -0.4463784623121822
  8.3392945075038369 -1.4976835724580981 -0.4463784623121824
  8.9979836030487412  8.3392945075038387 10.0492887131946596
  8.9979836030487412  0.2123106332327218 -1.4976835724580977
 -0.4463784623121829  0.2123106332327213 10.0492887131946578
 -0.4463784623121829  8.3392945075038369 -1.4976835724580981
 10.0492887131946578  8.9979836030487412  8.3392945075038387
 -1.4976835724580986  8.9979836030487412  0.2123106332327218
 10.0492887131946578 -0.4463784623121823  0.2123106332327219
 -1.4976835724580986 -0.4463784623121829  8.3392945075038369
  1.4301030900153469  3.5412928038713605  7.6153968022311567
  7.1215020507212108  5.0103123368651978  7.6153968022311576
  7.1215020507212108  3.5412928038713609  0.9362083385054024
  1.4301030900153469  5.0103123368651978  0.9362083385054022
  7.6153968022311558  1.4301030900153473  3.5412928038713605
  7.6153968022311558  7.1215020507212126  5.0103123368651978
  0.9362083385054017  7.1215020507212108  3.5412928038713609
  0.9362083385054017  1.4301030900153469  5.0103123368651978
  3.5412928038713605  7.6153968022311567  1.4301030900153475
  5.0103123368651969  7.6153968022311567  7.1215020507212126
  3.5412928038713605  0.9362083385054020  7.1215020507212117
  5.0103123368651969  0.9362083385054020  1.4301030900153473
  5.7059056603836265  7.8170953742396403  3.3395942318628786
  2.8456994803529327  0.7345097664969191  3.3395942318628777
  2.8456994803529327  7.8170953742396403  5.2120109088736823
  5.7059056603836265  0.7345097664969192  5.2120109088736815
  3.3395942318628777  5.7059056603836265  7.8170953742396412
  3.3395942318628777  2.8456994803529327  0.7345097664969192
  5.2120109088736815  2.8456994803529327  7.8170953742396412
  5.2120109088736815  5.7059056603836265  0.7345097664969196
  7.8170953742396403  3.3395942318628782  5.7059056603836265
  0.7345097664969189  3.3395942318628777  2.8456994803529332
  7.8170953742396403  5.2120109088736823  2.8456994803529332
  0.7345097664969189  5.2120109088736815  5.7059056603836265
  0.0000000000000000  4.2758025703682794  4.2758025703682785
  4.2758025703682794  0.0000000000000003  4.2758025703682785
  4.2758025703682794  4.2758025703682785  0.0000000000000005
  4.2758025703682794  0.0000000000000003  0.0000000000000003
  0.0000000000000000  4.2758025703682794  0.0000000000000003
  0.0000000000000000  0.0000000000000000  4.2758025703682794
