Ca  H 
 1.0000000000000000
     8.1704654368902432    0.0000000000000005    0.0000000000000005
     0.0000000000000000    8.1704654368902432    0.0000000000000005
     0.0000000000000000    0.0000000000000000    8.1704654368902432
 Ca  H  
   6  72
Cartesian
  0.0000000000000000  4.0852327184451216  4.0852327184451216
  4.0852327184451216  0.0000000000000003  4.0852327184451216
  4.0852327184451216  4.0852327184451216  0.0000000000000005
  4.0852327184451216  0.0000000000000003  0.0000000000000003
  0.0000000000000000  4.0852327184451216  0.0000000000000003
  0.0000000000000000  0.0000000000000000  4.0852327184451216
  7.5495133337659412  2.3246988206905290  3.8888781032796014
 -7.5495133337659412 -2.3246988206905290  3.8888781032796009
 -7.5495133337659412  2.3246988206905281 -3.8888781032796014
  7.5495133337659412 -2.3246988206905281 -3.8888781032796005
  3.8888781032796009  7.5495133337659412  2.3246988206905295
  3.8888781032796009 -7.5495133337659421 -2.3246988206905290
 -3.8888781032796009 -7.5495133337659412  2.3246988206905277
 -3.8888781032796009  7.5495133337659421 -2.3246988206905281
  2.3246988206905286  3.8888781032796009  7.5495133337659412
 -2.3246988206905286  3.8888781032796009 -7.5495133337659421
  2.3246988206905286 -3.8888781032796009 -7.5495133337659412
 -2.3246988206905286 -3.8888781032796009  7.5495133337659412
 11.6347460522110620  6.4099315391356511  7.9741108217247234
 -3.4642806153208201  1.7605338977545930  7.9741108217247225
 -3.4642806153208201  6.4099315391356502  0.1963546151655208
 11.6347460522110620  1.7605338977545937  0.1963546151655215
  7.9741108217247225 11.6347460522110620  6.4099315391356511
  7.9741108217247225 -3.4642806153208192  1.7605338977545932
  0.1963546151655206 -3.4642806153208201  6.4099315391356502
  0.1963546151655206 11.6347460522110620  1.7605338977545937
  6.4099315391356502  7.9741108217247225 11.6347460522110620
  1.7605338977545932  7.9741108217247225 -3.4642806153208192
  6.4099315391356502  0.1963546151655210 -3.4642806153208197
  1.7605338977545932  0.1963546151655207 11.6347460522110620
  7.1292140100812134  3.2134615896414074  5.6359108255030970
  1.0412514268090303  4.9570038472488367  5.6359108255030952
  1.0412514268090303  3.2134615896414069  2.5345546113871484
  7.1292140100812134  4.9570038472488367  2.5345546113871489
  5.6359108255030952  7.1292140100812134  3.2134615896414078
  5.6359108255030952  1.0412514268090305  4.9570038472488367
  2.5345546113871480  1.0412514268090303  3.2134615896414069
  2.5345546113871480  7.1292140100812134  4.9570038472488376
  3.2134615896414069  5.6359108255030952  7.1292140100812142
  4.9570038472488367  5.6359108255030952  1.0412514268090307
  3.2134615896414069  2.5345546113871480  1.0412514268090305
  4.9570038472488367  2.5345546113871484  7.1292140100812142
  3.0439812916360918  7.2986943080865290  1.5506781070579740
  5.1264841452541514  0.8717711288037151  1.5506781070579738
  5.1264841452541514  7.2986943080865281  6.6197873298322705
  3.0439812916360918  0.8717711288037150  6.6197873298322696
  1.5506781070579734  3.0439812916360918  7.2986943080865290
  1.5506781070579734  5.1264841452541514  0.8717711288037152
  6.6197873298322696  5.1264841452541523  7.2986943080865290
  6.6197873298322696  3.0439812916360927  0.8717711288037153
  7.2986943080865281  1.5506781070579738  3.0439812916360922
  0.8717711288037148  1.5506781070579734  5.1264841452541514
  7.2986943080865281  6.6197873298322714  5.1264841452541523
  0.8717711288037148  6.6197873298322696  3.0439812916360922
  5.4685265158114840  5.4732714621751430  4.3626506164826218
  2.7019389210787588  2.6971939747151010  4.3626506164826218
  2.7019389210787588  5.4732714621751422  3.8078148204076232
  5.4685265158114840  2.6971939747151015  3.8078148204076232
  4.3626506164826209  5.4685265158114840  5.4732714621751430
  4.3626506164826209  2.7019389210787592  2.6971939747151019
  3.8078148204076228  2.7019389210787592  5.4732714621751422
  3.8078148204076228  5.4685265158114840  2.6971939747151015
  5.4732714621751422  4.3626506164826218  5.4685265158114849
  2.6971939747151015  4.3626506164826209  2.7019389210787592
  5.4732714621751422  3.8078148204076228  2.7019389210787592
  2.6971939747151015  3.8078148204076223  5.4685265158114840
  1.3832937973663628  1.3880387437300208  0.2774178980374997
  6.7871716395238817  6.7824266931602226  0.2774178980375004
  6.7871716395238817  1.3880387437300212  7.8930475388527448
  1.3832937973663628  6.7824266931602226  7.8930475388527448
  0.2774178980374996  1.3832937973663628  1.3880387437300208
  0.2774178980374996  6.7871716395238817  6.7824266931602226
  7.8930475388527439  6.7871716395238817  1.3880387437300217
  7.8930475388527439  1.3832937973663633  6.7824266931602235
  1.3880387437300208  0.2774178980374996  1.3832937973663628
  6.7824266931602226  0.2774178980374999  6.7871716395238808
  1.3880387437300208  7.8930475388527439  6.7871716395238817
  6.7824266931602226  7.8930475388527439  1.3832937973663637
