Ca  H 
 1.0000000000000000
     5.3046309610693161    0.0000000000000003    0.0000000000000003
     0.0000000000000000    5.3046309610693161    0.0000000000000003
     0.0000000000000000    0.0000000000000000    5.3046309610693161
 Ca  H  
   2  32
Cartesian
  0.0000000000000000  0.0000000000000000  0.0000000000000000
  2.6523154805346580  2.6523154805346576  2.6523154805346585
  3.5129785975477796  0.0000000000000002  0.0000000000000002
 -3.5129785975477796 -0.0000000000000002 -0.0000000000000002
  0.0000000000000000  3.5129785975477796  0.0000000000000002
  0.0000000000000000 -3.5129785975477796 -0.0000000000000002
  0.0000000000000000  0.0000000000000000  3.5129785975477796
  0.0000000000000000  0.0000000000000000 -3.5129785975477796
  6.1652940780824377  2.6523154805346585  2.6523154805346585
 -0.8606631170131217  2.6523154805346580  2.6523154805346580
  2.6523154805346580  6.1652940780824377  2.6523154805346585
  2.6523154805346580 -0.8606631170131216  2.6523154805346580
  2.6523154805346580  2.6523154805346576  6.1652940780824377
  2.6523154805346580  2.6523154805346576 -0.8606631170131214
  1.9443238592401744  2.6523154805346580  0.0000000000000003
  3.3603071018291417  2.6523154805346576  0.0000000000000004
  0.0000000000000000  1.9443238592401744  2.6523154805346580
  0.0000000000000000  3.3603071018291417  2.6523154805346576
  2.6523154805346580  0.0000000000000002  1.9443238592401746
  2.6523154805346580  0.0000000000000002  3.3603071018291417
  4.5966393397748320  0.0000000000000003  2.6523154805346585
  0.7079916212944837  0.0000000000000000  2.6523154805346580
  2.6523154805346580  4.5966393397748329  0.0000000000000004
  2.6523154805346580  0.7079916212944838  0.0000000000000002
  0.0000000000000000  2.6523154805346580  4.5966393397748329
  0.0000000000000000  2.6523154805346580  0.7079916212944838
  1.5862788300951249  1.5862788300951249  1.5862788300951252
  3.7183521309741914  3.7183521309741918  1.5862788300951254
  3.7183521309741914  1.5862788300951252  3.7183521309741918
  1.5862788300951249  3.7183521309741914  3.7183521309741918
  4.2385943106297832  4.2385943106297832  4.2385943106297841
  1.0660366504395331  1.0660366504395329  4.2385943106297832
  1.0660366504395331  4.2385943106297832  1.0660366504395336
  4.2385943106297832  1.0660366504395333  1.0660366504395336
