Ca  H 
 1.0000000000000000
     5.8271521362814802    0.0000000000000004    0.0000000000000004
     0.0000000000000000    5.8271521362814802    0.0000000000000004
     0.0000000000000000    0.0000000000000000    5.8271521362814802
 Ca  H  
   2  54
Cartesian
  0.0000000000000000  0.0000000000000000  0.0000000000000000
  2.9135760681407401  2.9135760681407397  2.9135760681407405
  4.4166872988139332  2.5251887069010199  1.7549148351048705
 -4.4166872988139332 -2.5251887069010199  1.7549148351048696
 -4.4166872988139332  2.5251887069010195 -1.7549148351048702
  4.4166872988139332 -2.5251887069010195 -1.7549148351048698
  1.7549148351048700  4.4166872988139332  2.5251887069010204
  1.7549148351048700 -4.4166872988139332 -2.5251887069010199
 -1.7549148351048700 -4.4166872988139332  2.5251887069010195
 -1.7549148351048700  4.4166872988139332 -2.5251887069010195
  2.5251887069010199  1.7549148351048702  4.4166872988139323
 -2.5251887069010199  1.7549148351048698 -4.4166872988139332
  2.5251887069010199 -1.7549148351048698 -4.4166872988139332
 -2.5251887069010199 -1.7549148351048702  4.4166872988139332
  7.3302633669546733  5.4387647750417605  4.6684909032456110
 -1.5031112306731931  0.3883873612397201  4.6684909032456101
 -1.5031112306731931  5.4387647750417596  1.1586612330358703
  7.3302633669546733  0.3883873612397207  1.1586612330358705
  4.6684909032456101  7.3302633669546733  5.4387647750417605
  4.6684909032456101 -1.5031112306731929  0.3883873612397205
  1.1586612330358701 -1.5031112306731926  5.4387647750417596
  1.1586612330358701  7.3302633669546733  0.3883873612397207
  5.4387647750417596  4.6684909032456092  7.3302633669546742
  0.3883873612397203  4.6684909032456101 -1.5031112306731929
  5.4387647750417596  1.1586612330358701 -1.5031112306731926
  0.3883873612397203  1.1586612330358701  7.3302633669546733
  5.2027726093465292  1.5403978026583005  1.8645793629826135
  0.6243795269349510  4.2867543336231799  1.8645793629826133
  0.6243795269349510  1.5403978026583003  3.9625727732988669
  5.2027726093465292  4.2867543336231790  3.9625727732988674
  1.8645793629826131  5.2027726093465283  1.5403978026583007
  1.8645793629826131  0.6243795269349511  4.2867543336231790
  3.9625727732988669  0.6243795269349512  1.5403978026583005
  3.9625727732988669  5.2027726093465283  4.2867543336231808
  1.5403978026583003  1.8645793629826131  5.2027726093465283
  4.2867543336231799  1.8645793629826133  0.6243795269349514
  1.5403978026583003  3.9625727732988669  0.6243795269349514
  4.2867543336231799  3.9625727732988674  5.2027726093465301
  2.2891965412057891  4.4539738707990404  4.7781554311233529
  3.5379555950756911  1.3731782654824400  4.7781554311233529
  3.5379555950756911  4.4539738707990404  1.0489967051581275
  2.2891965412057891  1.3731782654824400  1.0489967051581273
  4.7781554311233529  2.2891965412057895  4.4539738707990395
  4.7781554311233529  3.5379555950756916  1.3731782654824403
  1.0489967051581270  3.5379555950756911  4.4539738707990395
  1.0489967051581270  2.2891965412057886  1.3731782654824400
  4.4539738707990404  4.7781554311233529  2.2891965412057891
  1.3731782654824398  4.7781554311233529  3.5379555950756916
  4.4539738707990404  1.0489967051581273  3.5379555950756916
  1.3731782654824398  1.0489967051581270  2.2891965412057886
  0.0000000000000000  2.9135760681407401  2.9135760681407397
  2.9135760681407401  0.0000000000000002  2.9135760681407397
  2.9135760681407401  2.9135760681407397  0.0000000000000004
  2.9135760681407401  0.0000000000000002  0.0000000000000002
  0.0000000000000000  2.9135760681407401  0.0000000000000002
  0.0000000000000000  0.0000000000000000  2.9135760681407401
