Ca  H 
 1.0000000000000000
     8.1388099573465311    0.0000000000000005    0.0000000000000005
     0.0000000000000000    8.1388099573465311    0.0000000000000005
     0.0000000000000000    0.0000000000000000    8.1388099573465311
 Ca  H  
   6  48
Cartesian
  0.0000000000000000  4.0694049786732656  4.0694049786732647
  4.0694049786732656  0.0000000000000002  4.0694049786732647
  4.0694049786732656  4.0694049786732647  0.0000000000000005
  4.0694049786732656  0.0000000000000002  0.0000000000000002
  0.0000000000000000  4.0694049786732656  0.0000000000000002
  0.0000000000000000  0.0000000000000000  4.0694049786732656
  6.4745639438961895  4.0694049786732647  0.0000000000000006
  1.6642460134503412  4.0694049786732656  0.0000000000000004
  0.0000000000000000  6.4745639438961895  4.0694049786732647
  0.0000000000000000  1.6642460134503412  4.0694049786732656
  4.0694049786732656  0.0000000000000002  6.4745639438961886
  4.0694049786732656  0.0000000000000002  1.6642460134503416
  2.4051589652229239  0.0000000000000001  4.0694049786732647
  5.7336509921236072  0.0000000000000004  4.0694049786732647
  4.0694049786732656  2.4051589652229244  0.0000000000000004
  4.0694049786732656  5.7336509921236072  0.0000000000000006
  0.0000000000000000  4.0694049786732656  2.4051589652229244
  0.0000000000000000  4.0694049786732656  5.7336509921236072
  5.6040325951610672  4.0694049786732647  0.0000000000000006
  2.5347773621854626  4.0694049786732647  0.0000000000000004
  0.0000000000000000  5.6040325951610672  4.0694049786732647
  0.0000000000000000  2.5347773621854626  4.0694049786732647
  4.0694049786732656  0.0000000000000002  5.6040325951610681
  4.0694049786732656  0.0000000000000002  2.5347773621854630
  1.5346276164878030  0.0000000000000001  4.0694049786732656
  6.6041823408587286  0.0000000000000004  4.0694049786732647
  4.0694049786732656  1.5346276164878032  0.0000000000000003
  4.0694049786732656  6.6041823408587286  0.0000000000000007
  0.0000000000000000  4.0694049786732656  1.5346276164878032
  0.0000000000000000  4.0694049786732656  6.6041823408587286
  7.1367582073507796  7.0742655384022157  4.9778337018664196
 -7.1367582073507796 -7.0742655384022157  4.9778337018664178
 -7.1367582073507796  7.0742655384022157 -4.9778337018664187
  7.1367582073507796 -7.0742655384022157 -4.9778337018664187
  4.9778337018664187  7.1367582073507787  7.0742655384022166
  4.9778337018664187 -7.1367582073507796 -7.0742655384022157
 -4.9778337018664187 -7.1367582073507787  7.0742655384022148
 -4.9778337018664187  7.1367582073507796 -7.0742655384022157
  7.0742655384022157  4.9778337018664187  7.1367582073507805
 -7.0742655384022157  4.9778337018664187 -7.1367582073507796
  7.0742655384022157 -4.9778337018664187 -7.1367582073507796
 -7.0742655384022157 -4.9778337018664187  7.1367582073507787
 11.2061631860240460 11.1436705170754795  9.0472386805396869
 -3.0673532286775140 -3.0048605597289497  9.0472386805396834
 -3.0673532286775140 11.1436705170754813 -0.9084287231931528
 11.2061631860240460 -3.0048605597289493 -0.9084287231931527
  9.0472386805396852 11.2061631860240460 11.1436705170754831
  9.0472386805396852 -3.0673532286775136 -3.0048605597289497
 -0.9084287231931534 -3.0673532286775140 11.1436705170754813
 -0.9084287231931534 11.2061631860240460 -3.0048605597289497
 11.1436705170754813  9.0472386805396852 11.2061631860240478
 -3.0048605597289502  9.0472386805396852 -3.0673532286775136
 11.1436705170754813 -0.9084287231931527 -3.0673532286775136
 -3.0048605597289502 -0.9084287231931536 11.2061631860240443
