Ca  H 
 1.0000000000000000
     8.2580817154513060    0.0000000000000005    0.0000000000000005
     0.0000000000000000    8.2580817154513060    0.0000000000000005
     0.0000000000000000    0.0000000000000000    8.2580817154513060
 Ca  H  
   8  72
Cartesian
  1.3159256903328813  1.3159256903328815  1.3159256903328815
  6.9421560251184244  6.9421560251184253  1.3159256903328822
  6.9421560251184244  1.3159256903328818  6.9421560251184262
  1.3159256903328813  6.9421560251184244  6.9421560251184262
  5.4449665480585345  5.4449665480585345  5.4449665480585363
  2.8131151673927715  2.8131151673927715  5.4449665480585345
  2.8131151673927715  5.4449665480585345  2.8131151673927723
  5.4449665480585345  2.8131151673927719  2.8131151673927723
  1.2666990265444693  4.9431628933127474  4.1323148777715382
 -1.2666990265444693 -4.9431628933127474  4.1323148777715382
 -1.2666990265444693  4.9431628933127474 -4.1323148777715382
  1.2666990265444693 -4.9431628933127474 -4.1323148777715382
  4.1323148777715391  1.2666990265444695  4.9431628933127483
  4.1323148777715391 -1.2666990265444691 -4.9431628933127474
 -4.1323148777715391 -1.2666990265444695  4.9431628933127474
 -4.1323148777715391  1.2666990265444691 -4.9431628933127474
  4.9431628933127474  4.1323148777715382  1.2666990265444700
 -4.9431628933127474  4.1323148777715382 -1.2666990265444693
  4.9431628933127474 -4.1323148777715382 -1.2666990265444695
 -4.9431628933127474 -4.1323148777715382  1.2666990265444686
  5.3957398842701219  9.0722037510384013  8.2613557354971903
  2.8623418311811837 -0.8141220355870944  8.2613557354971903
  2.8623418311811837  9.0722037510384013 -0.0032740200458841
  5.3957398842701219 -0.8141220355870943 -0.0032740200458846
  8.2613557354971903  5.3957398842701227  9.0722037510384013
  8.2613557354971903  2.8623418311811841 -0.8141220355870940
 -0.0032740200458849  2.8623418311811837  9.0722037510384013
 -0.0032740200458849  5.3957398842701219 -0.8141220355870943
  9.0722037510384030  8.2613557354971920  5.3957398842701245
 -0.8141220355870946  8.2613557354971903  2.8623418311811841
  9.0722037510384030 -0.0032740200458843  2.8623418311811841
 -0.8141220355870946 -0.0032740200458849  5.3957398842701219
  5.6802527406401397  5.6647827910315121  1.5353785839345393
  2.5778289748111662  2.5932989244197935  1.5353785839345386
  2.5778289748111662  5.6647827910315138  6.7227031315167691
  5.6802527406401397  2.5932989244197939  6.7227031315167691
  1.5353785839345384  5.6802527406401397  5.6647827910315121
  1.5353785839345384  2.5778289748111662  2.5932989244197944
  6.7227031315167673  2.5778289748111667  5.6647827910315129
  6.7227031315167673  5.6802527406401397  2.5932989244197948
  5.6647827910315121  1.5353785839345389  5.6802527406401406
  2.5932989244197935  1.5353785839345386  2.5778289748111671
  5.6647827910315121  6.7227031315167682  2.5778289748111676
  2.5932989244197935  6.7227031315167673  5.6802527406401415
  1.5512118829144868  1.5357419333058595  5.6644194416601916
  6.7068698325368192  6.7223397821454469  5.6644194416601925
  6.7068698325368192  1.5357419333058600  2.5936622737911148
  1.5512118829144868  6.7223397821454478  2.5936622737911148
  5.6644194416601916  1.5512118829144874  1.5357419333058600
  5.6644194416601916  6.7068698325368192  6.7223397821454478
  2.5936622737911144  6.7068698325368192  1.5357419333058604
  2.5936622737911144  1.5512118829144870  6.7223397821454478
  1.5357419333058595  5.6644194416601916  1.5512118829144872
  6.7223397821454478  5.6644194416601916  6.7068698325368201
  1.5357419333058595  2.5936622737911148  6.7068698325368192
  6.7223397821454478  2.5936622737911148  1.5512118829144876
  4.8633050944293226  7.4684038195888398  1.2238810562206517
  3.3947766210219839  0.7896778958624667  1.2238810562206512
  3.3947766210219839  7.4684038195888407  7.0342006592306570
  4.8633050944293226  0.7896778958624668  7.0342006592306552
  1.2238810562206510  4.8633050944293226  7.4684038195888398
  1.2238810562206510  3.3947766210219834  0.7896778958624669
  7.0342006592306561  3.3947766210219843  7.4684038195888407
  7.0342006592306561  4.8633050944293235  0.7896778958624674
  7.4684038195888407  1.2238810562206515  4.8633050944293243
  0.7896778958624665  1.2238810562206510  3.3947766210219834
  7.4684038195888407  7.0342006592306561  3.3947766210219847
  0.7896778958624665  7.0342006592306552  4.8633050944293243
  0.7342642367036697  3.3393629618631864  5.3529219139463038
  7.5238174787476364  4.9187187535881201  5.3529219139463047
  7.5238174787476364  3.3393629618631868  2.9051598015050026
  0.7342642367036697  4.9187187535881192  2.9051598015050026
  5.3529219139463038  0.7342642367036700  3.3393629618631868
  5.3529219139463038  7.5238174787476364  4.9187187535881201
  2.9051598015050026  7.5238174787476364  3.3393629618631873
  2.9051598015050026  0.7342642367036700  4.9187187535881201
  3.3393629618631864  5.3529219139463038  0.7342642367036702
  4.9187187535881192  5.3529219139463047  7.5238174787476382
  3.3393629618631864  2.9051598015050022  7.5238174787476364
  4.9187187535881192  2.9051598015050026  0.7342642367036701
