Ca  H 
 1.0000000000000000
     8.7852626980355435    0.0000000000000005    0.0000000000000005
     0.0000000000000000    8.7852626980355435    0.0000000000000005
     0.0000000000000000    0.0000000000000000    8.7852626980355435
 Ca  H  
   6  56
Cartesian
  0.0000000000000000  4.3926313490177717  4.3926313490177717
  4.3926313490177717  0.0000000000000003  4.3926313490177717
  4.3926313490177717  4.3926313490177717  0.0000000000000005
  4.3926313490177717  0.0000000000000003  0.0000000000000003
  0.0000000000000000  4.3926313490177717  0.0000000000000003
  0.0000000000000000  0.0000000000000000  4.3926313490177717
  1.3389265923801730  5.0347126968500460  7.1744829171090769
 -1.3389265923801730 -5.0347126968500460  7.1744829171090760
 -1.3389265923801730  5.0347126968500460 -7.1744829171090760
  1.3389265923801730 -5.0347126968500460 -7.1744829171090760
  7.1744829171090760  1.3389265923801734  5.0347126968500469
  7.1744829171090760 -1.3389265923801725 -5.0347126968500460
 -7.1744829171090760 -1.3389265923801734  5.0347126968500451
 -7.1744829171090760  1.3389265923801725 -5.0347126968500460
  5.0347126968500460  7.1744829171090760  1.3389265923801739
 -5.0347126968500460  7.1744829171090760 -1.3389265923801728
  5.0347126968500460 -7.1744829171090760 -1.3389265923801732
 -5.0347126968500460 -7.1744829171090760  1.3389265923801723
  5.7315579413979449  9.4273440458678177 11.5671142661268505
  3.0537047566375985 -0.6420813478322737 11.5671142661268487
  3.0537047566375985  9.4273440458678177 -2.7818515680913039
  5.7315579413979449 -0.6420813478322736 -2.7818515680913039
 11.5671142661268505  5.7315579413979458  9.4273440458678195
 11.5671142661268505  3.0537047566375994 -0.6420813478322730
 -2.7818515680913043  3.0537047566375985  9.4273440458678177
 -2.7818515680913043  5.7315579413979449 -0.6420813478322737
  9.4273440458678177 11.5671142661268487  5.7315579413979458
 -0.6420813478322739 11.5671142661268505  3.0537047566375994
  9.4273440458678177 -2.7818515680913039  3.0537047566375990
 -0.6420813478322739 -2.7818515680913043  5.7315579413979458
  7.0302662244547749  5.2976183909524881  3.4268534399590589
  1.7549964735807682  3.4876443070830558  3.4268534399590584
  1.7549964735807682  5.2976183909524881  5.3584092580764855
  7.0302662244547749  3.4876443070830563  5.3584092580764864
  3.4268534399590580  7.0302662244547749  5.2976183909524890
  3.4268534399590580  1.7549964735807684  3.4876443070830563
  5.3584092580764855  1.7549964735807686  5.2976183909524881
  5.3584092580764855  7.0302662244547749  3.4876443070830567
  5.2976183909524881  3.4268534399590589  7.0302662244547758
  3.4876443070830558  3.4268534399590580  1.7549964735807686
  5.2976183909524881  5.3584092580764855  1.7549964735807688
  3.4876443070830558  5.3584092580764855  7.0302662244547758
  2.6376348754370036  0.9049870419347161  7.8194847889768297
  6.1476278225985412  7.8802756561008271  7.8194847889768306
  6.1476278225985412  0.9049870419347164  0.9657779090587143
  2.6376348754370036  7.8802756561008280  0.9657779090587145
  7.8194847889768297  2.6376348754370040  0.9049870419347167
  7.8194847889768297  6.1476278225985412  7.8802756561008280
  0.9657779090587139  6.1476278225985403  0.9049870419347165
  0.9657779090587139  2.6376348754370036  7.8802756561008280
  0.9049870419347160  7.8194847889768297  2.6376348754370040
  7.8802756561008271  7.8194847889768306  6.1476278225985412
  0.9049870419347160  0.9657779090587139  6.1476278225985403
  7.8802756561008271  0.9657779090587143  2.6376348754370040
  6.8832538394518625  6.8832538394518616  6.8832538394518634
  1.9020088585836823  1.9020088585836825  6.8832538394518616
  1.9020088585836823  6.8832538394518616  1.9020088585836827
  6.8832538394518625  1.9020088585836830  1.9020088585836827
  2.4906224904340895  2.4906224904340899  2.4906224904340899
  6.2946402076014536  6.2946402076014536  2.4906224904340903
  6.2946402076014536  2.4906224904340899  6.2946402076014545
  2.4906224904340895  6.2946402076014554  6.2946402076014545
