SYSTEM = OPT
PREC = LOW
ENCUT = 400
EDIFF = 1e-3

KSPACING =0.6
IBRION = 2
ISIF = 4
NSW = 160
ISMEAR = 0
SIGMA = 0.05
POTIM = 0.2
ISTART = 0
LWAVE = FALSE
LCHARG = FALSE
PSTRESS = x
NPAR = 4
