SYSTEM = OPT
PREC = LOW
ENCUT = 400
EDIFF = 3e-2

KSPACING = 0.8
IBRION = 2
ISIF = 2
NSW = 100
ISMEAR = 0
SIGMA = 0.05
POTIM = 0.3
LWAVE = FALSE
LCHARG = FALSE
ISTART = 0
PSTRESS = x
NPAR = 4
