Ar  H 
 1.0000000000000000
     6.9958215288598593    0.0000000000000004    0.0000000000000004
     0.0000000000000000    5.2340606326490855    0.0000000000000003
     0.0000000000000000    0.0000000000000000   11.5296754054074295
 Ar  H  
   6  60
Cartesian
  0.0000000000000000  0.0000000000000000  0.0000000000000000
  3.4979107644299297  2.6170303163245427  0.0000000000000004
  3.4979107644299297  0.0000000000000002  0.0000000000000002
  0.0000000000000000  2.6170303163245427  0.0000000000000002
  3.4979107644299297  0.0000000000000002  5.7648377027037148
  0.0000000000000000  2.6170303163245427  5.7648377027037148
  5.4418078525117712  1.5897109588006029  7.9334526214583043
 -5.4418078525117712 -1.5897109588006029  7.9334526214583043
 -5.4418078525117712  1.5897109588006020 -7.9334526214583043
  5.4418078525117712 -1.5897109588006020 -7.9334526214583043
 -5.4418078525117712 -1.5897109588006029 -7.9334526214583043
  5.4418078525117712  1.5897109588006029 -7.9334526214583043
  5.4418078525117712 -1.5897109588006020  7.9334526214583043
 -5.4418078525117712  1.5897109588006020  7.9334526214583043
  8.9397186169417004  4.2067412751251467  7.9334526214583061
 -1.9438970880818423  1.0273193575239403  7.9334526214583052
 -1.9438970880818423  4.2067412751251450 -7.9334526214583052
  8.9397186169417004  1.0273193575239410 -7.9334526214583034
 -1.9438970880818423  1.0273193575239403 -7.9334526214583052
  8.9397186169417004  4.2067412751251467 -7.9334526214583034
  8.9397186169417004  1.0273193575239410  7.9334526214583052
 -1.9438970880818423  4.2067412751251450  7.9334526214583043
  6.4988417798931257  4.0491476679636724  4.5114423695819923
  0.4969797489667346  1.1849129646854133  4.5114423695819905
  0.4969797489667346  4.0491476679636724  7.0182330358254390
  6.4988417798931257  1.1849129646854137  7.0182330358254399
  0.4969797489667346  1.1849129646854133  7.0182330358254390
  6.4988417798931257  4.0491476679636724  7.0182330358254408
  6.4988417798931257  1.1849129646854137  4.5114423695819923
  0.4969797489667346  4.0491476679636724  4.5114423695819905
  3.0009310154631956  1.4321173516391297  4.5114423695819905
  3.9948905133966641  3.8019432810099563  4.5114423695819923
  3.9948905133966641  1.4321173516391297  7.0182330358254390
  3.0009310154631956  3.8019432810099567  7.0182330358254390
  3.9948905133966641  3.8019432810099563  7.0182330358254399
  3.0009310154631956  1.4321173516391297  7.0182330358254390
  3.0009310154631956  3.8019432810099567  4.5114423695819914
  3.9948905133966641  1.4321173516391297  4.5114423695819905
  5.0616354068863298  1.4408971102937331 11.1882144779842019
  1.9341861219735297  3.7931635223553526 11.1882144779842019
  1.9341861219735297  1.4408971102937334  0.3414609274232274
  5.0616354068863298  3.7931635223553535  0.3414609274232277
  1.9341861219735297  3.7931635223553526  0.3414609274232275
  5.0616354068863298  1.4408971102937331  0.3414609274232275
  5.0616354068863298  3.7931635223553535 11.1882144779842037
  1.9341861219735297  1.4408971102937334 11.1882144779842019
  1.5637246424564002  4.0579274266182761 11.1882144779842019
  5.4320968864034587  1.1761332060308103 11.1882144779842019
  5.4320968864034587  4.0579274266182761  0.3414609274232278
  1.5637246424564002  1.1761332060308098  0.3414609274232273
  5.4320968864034587  1.1761332060308103  0.3414609274232276
  1.5637246424564002  4.0579274266182761  0.3414609274232275
  1.5637246424564002  1.1761332060308098 11.1882144779842019
  5.4320968864034587  4.0579274266182761 11.1882144779842037
  2.1507807562601831  0.0000000000000001  5.7648377027037148
  4.8450407725996767  0.0000000000000003  5.7648377027037148
  5.6486915206901118  2.6170303163245432  5.7648377027037165
  1.3471300081697470  2.6170303163245427  5.7648377027037148
  0.0000000000000000  0.8354334568770017  5.7648377027037148
  0.0000000000000000  4.3986271757720834  5.7648377027037148
  3.4979107644299297  3.4524637732015444  5.7648377027037148
  3.4979107644299297  1.7815968594475413  5.7648377027037148
  0.0000000000000000  0.3037961824848328  5.7648377027037148
  0.0000000000000000  4.9302644501642527  5.7648377027037148
  3.4979107644299297  2.9208264988093755  5.7648377027037148
  3.4979107644299297  2.3132341338397104  5.7648377027037148
