Ar  H 
 1.0000000000000000
     7.6891905563681355    0.0000000000000005    0.0000000000000005
     0.0000000000000000   13.7015518987653753    0.0000000000000008
     0.0000000000000000    0.0000000000000000    9.3548772169625316
 Ar  H  
   2  66
Cartesian
  0.0000000000000000  0.0000000000000000  4.6774386084812658
  3.8445952781840678  6.8507759493826867  4.6774386084812667
  6.7309651342768264 11.3638425646062196  5.8503599923880518
 -6.7309651342768264 -11.3638425646062196  5.8503599923880500
 -6.7309651342768264 11.3638425646062178 -5.8503599923880509
  6.7309651342768264 -11.3638425646062178 -5.8503599923880509
 -6.7309651342768264 -11.3638425646062196 -5.8503599923880518
  6.7309651342768264 11.3638425646062196 -5.8503599923880500
  6.7309651342768264 -11.3638425646062178  5.8503599923880509
 -6.7309651342768264 11.3638425646062178  5.8503599923880509
 10.5755604124608933 18.2146185139889063  5.8503599923880527
 -2.8863698560927582 -4.5130666152235301  5.8503599923880500
 -2.8863698560927582 18.2146185139889063 -5.8503599923880500
 10.5755604124608933 -4.5130666152235293 -5.8503599923880509
 -2.8863698560927582 -4.5130666152235301 -5.8503599923880518
 10.5755604124608933 18.2146185139889063 -5.8503599923880492
 10.5755604124608933 -4.5130666152235293  5.8503599923880509
 -2.8863698560927582 18.2146185139889063  5.8503599923880518
  5.9615744124611050  0.7075794749480619  8.7656660431912101
  1.7276161439070306 12.9939724238173113  8.7656660431912119
  1.7276161439070306  0.7075794749480618  0.5892111737713218
  5.9615744124611050 12.9939724238173113  0.5892111737713228
  1.7276161439070306 12.9939724238173113  0.5892111737713226
  5.9615744124611050  0.7075794749480619  0.5892111737713221
  5.9615744124611050 12.9939724238173113  8.7656660431912119
  1.7276161439070306  0.7075794749480618  8.7656660431912101
  2.1169791342770372  7.5583554243307498  8.7656660431912101
  5.5722114220910983  6.1431964744346255  8.7656660431912101
  5.5722114220910983  7.5583554243307498  0.5892111737713226
  2.1169791342770372  6.1431964744346255  0.5892111737713223
  5.5722114220910983  6.1431964744346255  0.5892111737713224
  2.1169791342770372  7.5583554243307498  0.5892111737713223
  2.1169791342770372  6.1431964744346255  8.7656660431912101
  5.5722114220910983  7.5583554243307498  8.7656660431912101
  1.9096448523136524  9.5474823022107653  5.0890772796991133
  5.7795457040544846  4.1540695965546099  5.0890772796991133
  5.7795457040544846  9.5474823022107653  4.2657999372634201
  1.9096448523136524  4.1540695965546091  4.2657999372634192
  5.7795457040544846  4.1540695965546099  4.2657999372634201
  1.9096448523136524  9.5474823022107653  4.2657999372634192
  1.9096448523136524  4.1540695965546091  5.0890772796991124
  5.7795457040544846  9.5474823022107653  5.0890772796991133
  5.7542401304977195  2.6967063528280777  5.0890772796991133
  1.9349504258704155 11.0048455459372985  5.0890772796991133
  1.9349504258704155  2.6967063528280777  4.2657999372634192
  5.7542401304977195 11.0048455459372985  4.2657999372634201
  1.9349504258704155 11.0048455459372985  4.2657999372634201
  5.7542401304977195  2.6967063528280777  4.2657999372634201
  5.7542401304977195 11.0048455459372985  5.0890772796991151
  1.9349504258704155  2.6967063528280777  5.0890772796991124
  3.8445952781840678  0.0000000000000002  4.6774386084812658
  0.0000000000000000  6.8507759493826876  4.6774386084812649
  0.0000000000000000  7.4685918369036859  1.6232686594495174
  0.0000000000000000  6.2329600618616885  1.6232686594495174
  0.0000000000000000  7.4685918369036859  7.7316085575130158
  0.0000000000000000  6.2329600618616885  7.7316085575130149
  3.8445952781840678  0.6178158875209980  1.6232686594495171
  3.8445952781840678 13.0837360112443779  1.6232686594495180
  3.8445952781840678  0.6178158875209980  7.7316085575130149
  3.8445952781840678 13.0837360112443779  7.7316085575130158
  3.0307063342794986  0.0000000000000002  2.4869062201648586
  4.6584842220886387  0.0000000000000003  2.4869062201648591
  4.6584842220886387  0.0000000000000003  6.8679709967976725
  3.0307063342794986  0.0000000000000002  6.8679709967976734
  6.8753016124635655  6.8507759493826867  2.4869062201648595
  0.8138889439045697  6.8507759493826876  2.4869062201648591
  0.8138889439045697  6.8507759493826876  6.8679709967976734
  6.8753016124635655  6.8507759493826867  6.8679709967976734
