Ar  H 
 1.0000000000000000
     8.2843377174985466    0.0000000000000005    0.0000000000000005
     0.0000000000000000    5.7451623388025270    0.0000000000000004
     0.0000000000000000    0.0000000000000000    6.6490171024209088
 Ar  H  
   6  80
Cartesian
  0.0000000000000000  0.0000000000000000  0.0000000000000000
  4.1421688587492733  2.8725811694012640  0.0000000000000004
  2.0710844293746367  1.4362905847006320  0.0000000000000002
  6.2132532881239104  1.4362905847006322  0.0000000000000005
  6.2132532881239104  4.3088717541018955  0.0000000000000006
  2.0710844293746367  4.3088717541018955  0.0000000000000004
  2.7023362432690323  5.1877649554297767  0.4911771770020180
 -2.7023362432690323 -5.1877649554297767  0.4911771770020171
 -2.7023362432690323  5.1877649554297758 -0.4911771770020175
  2.7023362432690323 -5.1877649554297758 -0.4911771770020177
 -2.7023362432690323 -5.1877649554297767 -0.4911771770020180
  2.7023362432690323  5.1877649554297767 -0.4911771770020171
  2.7023362432690323 -5.1877649554297758  0.4911771770020175
 -2.7023362432690323  5.1877649554297758  0.4911771770020177
  6.8445051020183056  8.0603461248310406  0.4911771770020185
  1.4398326154802410 -2.3151837860285127  0.4911771770020176
  1.4398326154802410  8.0603461248310388 -0.4911771770020170
  6.8445051020183056 -2.3151837860285123 -0.4911771770020174
  1.4398326154802410 -2.3151837860285127 -0.4911771770020177
  6.8445051020183056  8.0603461248310406 -0.4911771770020166
  6.8445051020183056 -2.3151837860285123  0.4911771770020179
  1.4398326154802410  8.0603461248310388  0.4911771770020181
  2.3689122785559427  5.0324558762305109  6.4316611049496775
  5.9154254389426040  0.7127064625720162  6.4316611049496766
  5.9154254389426040  5.0324558762305118  0.2173559974712323
  2.3689122785559427  0.7127064625720160  0.2173559974712318
  5.9154254389426040  0.7127064625720162  0.2173559974712320
  2.3689122785559427  5.0324558762305109  0.2173559974712321
  2.3689122785559427  0.7127064625720160  6.4316611049496766
  5.9154254389426040  5.0324558762305118  6.4316611049496775
  6.5110811373052160  2.1598747068292483  6.4316611049496775
  1.7732565801933304  3.5852876319732792  6.4316611049496766
  1.7732565801933304  2.1598747068292479  0.2173559974712318
  6.5110811373052160  3.5852876319732796  0.2173559974712322
  1.7732565801933304  3.5852876319732792  0.2173559974712319
  6.5110811373052160  2.1598747068292483  0.2173559974712322
  6.5110811373052160  3.5852876319732796  6.4316611049496775
  1.7732565801933304  2.1598747068292479  6.4316611049496766
  0.5918772825135845  4.9078953413303648  2.7798722208150557
  7.6924604349849623  0.8372669974721626  2.7798722208150557
  7.6924604349849623  4.9078953413303665  3.8691448816058540
  0.5918772825135845  0.8372669974721624  3.8691448816058531
  7.6924604349849623  0.8372669974721626  3.8691448816058536
  0.5918772825135845  4.9078953413303648  3.8691448816058536
  0.5918772825135845  0.8372669974721624  2.7798722208150553
  7.6924604349849623  4.9078953413303665  2.7798722208150561
  4.7340461412628567  2.0353141719291017  2.7798722208150557
  3.5502915762356881  3.7098481668734258  2.7798722208150557
  3.5502915762356881  2.0353141719291017  3.8691448816058536
  4.7340461412628567  3.7098481668734262  3.8691448816058536
  3.5502915762356881  3.7098481668734258  3.8691448816058536
  4.7340461412628567  2.0353141719291017  3.8691448816058536
  4.7340461412628567  3.7098481668734262  2.7798722208150557
  3.5502915762356881  2.0353141719291017  2.7798722208150557
  0.4664392420589851  3.5922995673006324  2.1784729075367184
  7.8178984754395620  2.1528627715018951  2.1784729075367184
  7.8178984754395620  3.5922995673006328  4.4705441948841917
  0.4664392420589851  2.1528627715018946  4.4705441948841900
  7.8178984754395620  2.1528627715018951  4.4705441948841917
  0.4664392420589851  3.5922995673006324  4.4705441948841900
  0.4664392420589851  2.1528627715018946  2.1784729075367180
  7.8178984754395620  3.5922995673006328  2.1784729075367188
  4.6086081008082571  0.7197183978993691  2.1784729075367180
  3.6757296166902882  5.0254439409031582  2.1784729075367184
  3.6757296166902882  0.7197183978993690  4.4705441948841900
  4.6086081008082571  5.0254439409031590  4.4705441948841917
  3.6757296166902882  5.0254439409031582  4.4705441948841909
  4.6086081008082571  0.7197183978993691  4.4705441948841900
  4.6086081008082571  5.0254439409031590  2.1784729075367184
  3.6757296166902882  0.7197183978993690  2.1784729075367184
  3.1213864681575836  3.9755634840939509  3.3245085512104544
  5.1629512493409617  1.7695988547085764  3.3245085512104544
  5.1629512493409617  3.9755634840939518  3.3245085512104544
  3.1213864681575836  1.7695988547085764  3.3245085512104549
  7.2635553269068573  1.1029823146926878  3.3245085512104544
  1.0207823905916897  4.6421800241098401  3.3245085512104544
  1.0207823905916897  1.1029823146926874  3.3245085512104540
  7.2635553269068573  4.6421800241098410  3.3245085512104553
  4.7287239181846301  0.7887648320071203  3.3245085512104544
  3.5556137993139161  4.9563975067954074  3.3245085512104544
  3.5556137993139161  0.7887648320071202  3.3245085512104549
  4.7287239181846301  4.9563975067954074  3.3245085512104544
  0.5865550594353567  3.6613460014083836  3.3245085512104549
  7.6977826580631890  2.0838163373941438  3.3245085512104544
  7.6977826580631890  3.6613460014083841  3.3245085512104553
  0.5865550594353567  2.0838163373941434  3.3245085512104540
