Ar  H 
 1.0000000000000000
     5.0041117734619762    0.0000000000000003    0.0000000000000003
     0.0000000000000000    4.5306141284281400    0.0000000000000003
     0.0000000000000000    0.0000000000000000    5.0468702025193757
 Ar  H  
   4  10
Cartesian
  0.0000000000000000  0.0000000000000000  0.0000000000000000
  2.5020558867309881  2.2653070642140700  0.0000000000000003
  2.5020558867309881  0.0000000000000002  2.5234351012596874
  0.0000000000000000  2.2653070642140700  2.5234351012596874
  2.5020558867309881  0.0000000000000002  0.0000000000000002
  0.0000000000000000  2.2653070642140700  0.0000000000000001
  1.2510279433654941  1.1326535321070350  2.8280494814154506
  3.7530838300964824  1.1326535321070352 -2.8280494814154502
  3.7530838300964824  3.3979605963211053 -2.8280494814154502
  1.2510279433654941  3.3979605963211048  2.8280494814154511
  3.7530838300964824  3.3979605963211053  2.8280494814154511
  6.2551397168274701  3.3979605963211053 -2.8280494814154502
  6.2551397168274701  5.6632676605351753 -2.8280494814154498
  3.7530838300964824  5.6632676605351753  2.8280494814154511
