Ar  H 
 1.0000000000000000
     7.2873156972471316    0.0000000000000004    0.0000000000000004
     0.0000000000000000    4.0673543503018657    0.0000000000000002
     0.0000000000000000    0.0000000000000000   14.0003692340275894
 Ar  H  
  12  88
Cartesian
  0.0000000000000000  0.0000000000000000  0.0000000000000000
  3.6436578486235658  2.0336771751509333  0.0000000000000003
  0.0000000000000000  0.0000000000000000  7.0001846170137938
  3.6436578486235658  2.0336771751509333  7.0001846170137938
  1.8218289243117829  1.0168385875754666  0.0000000000000002
  5.4654867729353489  1.0168385875754669  0.0000000000000004
  5.4654867729353489  3.0505157627263997  0.0000000000000005
  1.8218289243117829  3.0505157627263988  0.0000000000000003
  1.8218289243117829  1.0168385875754666  7.0001846170137938
  5.4654867729353489  1.0168385875754669  7.0001846170137938
  5.4654867729353489  3.0505157627263997  7.0001846170137956
  1.8218289243117829  3.0505157627263988  7.0001846170137938
  0.9483009789718937  3.1480365301828979 12.9452648333076095
 -0.9483009789718937 -3.1480365301828979 12.9452648333076095
 -0.9483009789718937  3.1480365301828974 -12.9452648333076095
  0.9483009789718937 -3.1480365301828974 -12.9452648333076095
 -0.9483009789718937 -3.1480365301828979 -12.9452648333076095
  0.9483009789718937  3.1480365301828979 -12.9452648333076095
  0.9483009789718937 -3.1480365301828974 12.9452648333076095
 -0.9483009789718937  3.1480365301828974 12.9452648333076095
  4.5919588275954597  5.1817137053338307 12.9452648333076112
  2.6953568696516723 -1.1143593550319644 12.9452648333076095
  2.6953568696516723  5.1817137053338307 -12.9452648333076095
  4.5919588275954597 -1.1143593550319646 -12.9452648333076095
  2.6953568696516723 -1.1143593550319644 -12.9452648333076095
  4.5919588275954597  5.1817137053338307 -12.9452648333076112
  4.5919588275954597 -1.1143593550319646 12.9452648333076095
  2.6953568696516723  5.1817137053338307 12.9452648333076095
  7.0460948016327674  0.7634780751375795  0.8030531182976834
  0.2412208956143632  3.3038762751642858  0.8030531182976832
  0.2412208956143632  0.7634780751375791 13.1973161157299046
  7.0460948016327674  3.3038762751642863 13.1973161157299046
  0.2412208956143632  3.3038762751642858 13.1973161157299046
  7.0460948016327674  0.7634780751375795 13.1973161157299046
  7.0460948016327674  3.3038762751642863  0.8030531182976838
  0.2412208956143632  0.7634780751375791  0.8030531182976832
  3.4024369530092020  2.7971552502885122  0.8030531182976834
  3.8848787442379291  1.2701991000133539  0.8030531182976833
  3.8848787442379291  2.7971552502885126 13.1973161157299046
  3.4024369530092020  1.2701991000133539 13.1973161157299046
  3.8848787442379291  1.2701991000133539 13.1973161157299046
  3.4024369530092020  2.7971552502885122 13.1973161157299046
  3.4024369530092020  1.2701991000133539  0.8030531182976834
  3.8848787442379291  2.7971552502885126  0.8030531182976836
  2.4166987055955347  1.2980008796616735  2.3369189018189140
  4.8706169916515965  2.7693534706401923  2.3369189018189136
  4.8706169916515965  1.2980008796616738 11.6634503322086740
  2.4166987055955347  2.7693534706401923 11.6634503322086740
  4.8706169916515965  2.7693534706401923 11.6634503322086740
  2.4166987055955347  1.2980008796616735 11.6634503322086740
  2.4166987055955347  2.7693534706401923  2.3369189018189140
  4.8706169916515965  1.2980008796616738  2.3369189018189140
  6.0603565542191005  3.3316780548126061  2.3369189018189136
  1.2269591430280311  0.7356762954892594  2.3369189018189132
  1.2269591430280311  3.3316780548126061 11.6634503322086740
  6.0603565542191005  0.7356762954892596 11.6634503322086740
  1.2269591430280311  0.7356762954892594 11.6634503322086740
  6.0603565542191005  3.3316780548126061 11.6634503322086740
  6.0603565542191005  0.7356762954892596  2.3369189018189136
  1.2269591430280311  3.3316780548126061  2.3369189018189140
  5.8339213147045133  1.6485464165721833  1.3113721293655618
  1.4533943825426172  2.4188079337296826  1.3113721293655616
  1.4533943825426172  1.6485464165721828 12.6889971046620271
  5.8339213147045133  2.4188079337296831 12.6889971046620271
  1.4533943825426172  2.4188079337296826 12.6889971046620271
  5.8339213147045133  1.6485464165721833 12.6889971046620271
  5.8339213147045133  2.4188079337296831  1.3113721293655618
  1.4533943825426172  1.6485464165721828  1.3113721293655618
  2.1902634660809479  3.6822235917231159  1.3113721293655620
  5.0970522311661819  0.3851307585787503  1.3113721293655618
  5.0970522311661819  3.6822235917231159 12.6889971046620271
  2.1902634660809479  0.3851307585787500 12.6889971046620271
  5.0970522311661819  0.3851307585787503 12.6889971046620271
  2.1902634660809479  3.6822235917231159 12.6889971046620271
  2.1902634660809479  0.3851307585787500  1.3113721293655618
  5.0970522311661819  3.6822235917231159  1.3113721293655618
  5.7729093813713508  1.1806445938127028  1.9813185862035718
  1.5144063158757795  2.8867097564891635  1.9813185862035712
  1.5144063158757795  1.1806445938127024 12.0190506478240184
  5.7729093813713508  2.8867097564891639 12.0190506478240167
  1.5144063158757795  2.8867097564891635 12.0190506478240184
  5.7729093813713508  1.1806445938127028 12.0190506478240167
  5.7729093813713508  2.8867097564891639  1.9813185862035714
  1.5144063158757795  1.1806445938127024  1.9813185862035716
  2.1292515327477863  3.2143217689636350  1.9813185862035712
  5.1580641644993452  0.8530325813382309  1.9813185862035718
  5.1580641644993452  3.2143217689636354 12.0190506478240167
  2.1292515327477863  0.8530325813382307 12.0190506478240184
  5.1580641644993452  0.8530325813382309 12.0190506478240167
  2.1292515327477863  3.2143217689636350 12.0190506478240167
  2.1292515327477863  0.8530325813382307  1.9813185862035716
  5.1580641644993452  3.2143217689636354  1.9813185862035714
  1.8218289243117829  1.0168385875754666  3.7065222890103091
  5.4654867729353489  1.0168385875754669 10.2938469450172789
  5.4654867729353489  3.0505157627263997 10.2938469450172789
  1.8218289243117829  3.0505157627263988  3.7065222890103096
  5.4654867729353489  3.0505157627263997  3.7065222890103096
  1.8218289243117829  3.0505157627263988 10.2938469450172789
  1.8218289243117829  1.0168385875754666 10.2938469450172807
  5.4654867729353489  1.0168385875754669  3.7065222890103087
