Ar  H 
 1.0000000000000000
    10.4177430613490660    0.0000000000000006    0.0000000000000006
     0.0000000000000000    3.5909470599839537    0.0000000000000002
     0.0000000000000000    0.0000000000000000    4.2684110681122247
 Ar  H  
   4   6
Cartesian
  0.0000000000000000  0.0000000000000000  0.0000000000000000
  5.2088715306745330  1.7954735299919771  0.0000000000000004
  0.0000000000000000  0.0000000000000000  2.1342055340561124
  5.2088715306745330  1.7954735299919771  2.1342055340561128
  5.2088715306745330  0.0000000000000003  2.1342055340561128
  0.0000000000000000  1.7954735299919768  2.1342055340561124
  0.0000000000000000  2.1114095531574164  2.1342055340561124
  0.0000000000000000 -2.1114095531574164  2.1342055340561124
  5.2088715306745330  3.9068830831493937  2.1342055340561128
  5.2088715306745330 -0.3159360231654391  2.1342055340561128
