Ar  H 
 1.0000000000000000
     4.3173312675031408    0.0000000000000003    0.0000000000000003
     0.0000000000000000    8.1560698073963316    0.0000000000000005
     0.0000000000000000    0.0000000000000000    7.1618994531514906
 Ar  H  
  10  16
Cartesian
  0.0000000000000000  0.0000000000000000  0.0000000000000000
  2.1586656337515704  4.0780349036981658  0.0000000000000004
  2.1586656337515704  0.0000000000000001  0.0000000000000001
  0.0000000000000000  4.0780349036981658  0.0000000000000002
  0.0000000000000000  0.0000000000000000  3.5809497265757453
  2.1586656337515704  4.0780349036981658  3.5809497265757457
  1.0793328168757852  2.0390174518490829  3.5809497265757453
  3.2379984506273556  2.0390174518490829  3.5809497265757457
  3.2379984506273556  6.1170523555472487  3.5809497265757457
  5.3966640843789273  6.1170523555472487  3.5809497265757462
  1.0793328168757852  2.0390174518490829  0.0000000000000002
  3.2379984506273556  2.0390174518490829  0.0000000000000003
  3.2379984506273556  6.1170523555472487  0.0000000000000006
  1.0793328168757852  6.1170523555472487  0.0000000000000004
  0.0000000000000000  3.0783193850888062  0.0000000000000002
  0.0000000000000000  5.0777504223075249  0.0000000000000003
  2.1586656337515704  7.1563542887869733  0.0000000000000006
  2.1586656337515704  0.9997155186093597  0.0000000000000002
  0.0000000000000000  0.0000000000000000  6.0584983898135718
  0.0000000000000000  0.0000000000000000  1.1034010633379188
  2.1586656337515704  4.0780349036981658  6.0584983898135718
  2.1586656337515704  4.0780349036981658  1.1034010633379194
  0.0000000000000000  4.0780349036981658  1.2831336517144254
  0.0000000000000000  4.0780349036981658  5.8787658014370656
  2.1586656337515704  0.0000000000000001  1.2831336517144252
  2.1586656337515704  0.0000000000000001  5.8787658014370656
