Ar  H 
 1.0000000000000000
    10.9406337068686650    0.0000000000000007    0.0000000000000007
     0.0000000000000000    7.8003653284299883    0.0000000000000005
     0.0000000000000000    0.0000000000000000    9.1708795249685799
 Ar  H  
   6  84
Cartesian
  5.4703168534343316  0.0000000000000003  4.5854397624842891
  0.0000000000000000  3.9001826642149942  4.5854397624842891
  2.7351584267171658  1.9500913321074973  4.5854397624842891
  8.2054752801514983  1.9500913321074975  4.5854397624842909
  8.2054752801514983  5.8502739963224917  4.5854397624842909
  2.7351584267171658  5.8502739963224908  4.5854397624842909
  3.7998992926095316  1.3923349329044261  0.3081426732821010
 -3.7998992926095316 -1.3923349329044261  0.3081426732821003
 -3.7998992926095316  1.3923349329044257 -0.3081426732821009
  3.7998992926095316 -1.3923349329044257 -0.3081426732821005
 -3.7998992926095316 -1.3923349329044261 -0.3081426732821010
  3.7998992926095316  1.3923349329044261 -0.3081426732821003
  3.7998992926095316 -1.3923349329044257  0.3081426732821009
 -3.7998992926095316  1.3923349329044257  0.3081426732821005
  9.2702161460438628  5.2925175971194207  0.3081426732821016
  1.6704175608248002  2.5078477313105680  0.3081426732821010
  1.6704175608248002  5.2925175971194198 -0.3081426732821002
  9.2702161460438628  2.5078477313105685 -0.3081426732821000
  1.6704175608248002  2.5078477313105680 -0.3081426732821004
  9.2702161460438628  5.2925175971194207 -0.3081426732820998
  9.2702161460438628  2.5078477313105685  0.3081426732821014
  1.6704175608248002  5.2925175971194198  0.3081426732821012
  1.7952197216238257  0.6173237281108734  1.3914912353819202
  9.1454139852448382  7.1830416003191155  1.3914912353819211
  9.1454139852448382  0.6173237281108739  7.7793882895866604
  1.7952197216238257  7.1830416003191147  7.7793882895866604
  9.1454139852448382  7.1830416003191155  7.7793882895866604
  1.7952197216238257  0.6173237281108734  7.7793882895866595
  1.7952197216238257  7.1830416003191147  1.3914912353819204
  9.1454139852448382  0.6173237281108739  1.3914912353819207
  7.2655365750581584  4.5175063923258687  1.3914912353819207
  3.6750971318105066  3.2828589361041214  1.3914912353819204
  3.6750971318105066  4.5175063923258678  7.7793882895866604
  7.2655365750581584  3.2828589361041214  7.7793882895866604
  3.6750971318105066  3.2828589361041214  7.7793882895866595
  7.2655365750581584  4.5175063923258687  7.7793882895866604
  7.2655365750581584  3.2828589361041214  1.3914912353819207
  3.6750971318105066  4.5175063923258678  1.3914912353819204
  8.2088782037503680  6.4082411498146463  6.7964361171747445
  2.7317555031182970  1.3921241786153433  6.7964361171747436
  2.7317555031182970  6.4082411498146454  2.3744434077938372
  8.2088782037503680  1.3921241786153435  2.3744434077938372
  2.7317555031182970  1.3921241786153433  2.3744434077938372
  8.2088782037503680  6.4082411498146463  2.3744434077938377
  8.2088782037503680  1.3921241786153435  6.7964361171747445
  2.7317555031182970  6.4082411498146454  6.7964361171747445
  2.7385613503160355  2.5080584855996513  6.7964361171747436
  8.2020723565526303  5.2923068428303379  6.7964361171747427
  8.2020723565526303  2.5080584855996517  2.3744434077938368
  2.7385613503160355  5.2923068428303370  2.3744434077938372
  8.2020723565526303  5.2923068428303379  2.3744434077938377
  2.7385613503160355  2.5080584855996513  2.3744434077938372
  2.7385613503160355  5.2923068428303370  6.7964361171747445
  8.2020723565526303  2.5080584855996517  6.7964361171747445
  7.8887070213697905  4.8679795544900051  4.1082346456553411
  3.0519266854988749  2.9323857739399841  4.1082346456553402
  3.0519266854988749  4.8679795544900042  5.0626448793132397
  7.8887070213697905  2.9323857739399846  5.0626448793132406
  3.0519266854988749  2.9323857739399841  5.0626448793132397
  7.8887070213697905  4.8679795544900051  5.0626448793132406
  7.8887070213697905  2.9323857739399846  4.1082346456553411
  3.0519266854988749  4.8679795544900042  4.1082346456553411
  2.4183901679354576  0.9677968902750100  4.1082346456553402
  8.5222435389332070  6.8325684381549792  4.1082346456553411
  8.5222435389332070  0.9677968902750105  5.0626448793132397
  2.4183901679354576  6.8325684381549783  5.0626448793132397
  8.5222435389332070  6.8325684381549792  5.0626448793132406
  2.4183901679354576  0.9677968902750100  5.0626448793132397
  2.4183901679354576  6.8325684381549783  4.1082346456553411
  8.5222435389332070  0.9677968902750105  4.1082346456553411
  4.8093558871608693  3.0477268865396034  7.8208894665208728
  6.1312778197077948  4.7526384418903849  7.8208894665208728
  6.1312778197077948  3.0477268865396034  1.3499900584477087
  4.8093558871608693  4.7526384418903849  1.3499900584477085
  6.1312778197077948  4.7526384418903849  1.3499900584477087
  4.8093558871608693  3.0477268865396034  1.3499900584477085
  4.8093558871608693  4.7526384418903849  7.8208894665208728
  6.1312778197077948  3.0477268865396034  7.8208894665208728
 10.2796727405952009  6.9479095507545985  7.8208894665208728
  0.6609609662734636  0.8524557776753910  7.8208894665208719
  0.6609609662734636  6.9479095507545976  1.3499900584477085
 10.2796727405952009  0.8524557776753917  1.3499900584477087
  0.6609609662734636  0.8524557776753910  1.3499900584477080
 10.2796727405952009  6.9479095507545985  1.3499900584477091
 10.2796727405952009  0.8524557776753917  7.8208894665208728
  0.6609609662734636  6.9479095507545976  7.8208894665208728
  9.7884831113887891  0.0000000000000006  0.0000000000000006
  1.1521505954798752  0.0000000000000001  0.0000000000000001
  4.3181662579544575  3.9001826642149946  0.0000000000000005
  6.6224674489142066  3.9001826642149946  0.0000000000000006
