Ar  H 
 1.0000000000000000
     5.1899055162677072    0.0000000000000003    0.0000000000000003
     0.0000000000000000    8.4547116567482270    0.0000000000000005
     0.0000000000000000    0.0000000000000000    7.9244303657173152
 Ar  H  
  12  40
Cartesian
  0.0000000000000000  0.0000000000000000  0.0000000000000000
  2.5949527581338536  4.2273558283741135  0.0000000000000004
  2.5949527581338536  0.0000000000000002  3.9622151828586576
  0.0000000000000000  4.2273558283741135  3.9622151828586589
  1.2974763790669268  2.1136779141870567  0.0000000000000002
  3.8924291372007804  2.1136779141870576  0.0000000000000004
  3.8924291372007804  6.3410337425611702  0.0000000000000006
  1.2974763790669268  6.3410337425611702  0.0000000000000005
  1.2974763790669268  2.1136779141870567  3.9622151828586576
  3.8924291372007804  2.1136779141870576  3.9622151828586580
  3.8924291372007804  6.3410337425611702  3.9622151828586580
  1.2974763790669268  6.3410337425611702  3.9622151828586580
  0.0000000000000000  5.9588329825722859  0.0000000000000004
  0.0000000000000000  2.4958786741759407  0.0000000000000002
  2.5949527581338536  1.7314771541981731  0.0000000000000003
  2.5949527581338536  6.7232345025500555  0.0000000000000006
  0.0000000000000000  4.2273558283741135  2.0658099987326439
  0.0000000000000000  4.2273558283741135  5.8586203669846721
  2.5949527581338536  0.0000000000000002  2.0658099987326439
  2.5949527581338536  0.0000000000000002  5.8586203669846713
  2.8463056483461311  0.0000000000000002  7.7086124158329712
 -2.8463056483461311 -0.0000000000000002  7.7086124158329712
 -2.8463056483461311 -0.0000000000000002 -7.7086124158329712
  2.8463056483461311  0.0000000000000002 -7.7086124158329712
  5.4412584064799860  4.2273558283741135  7.7086124158329712
 -0.2513528902122776  4.2273558283741135  7.7086124158329703
 -0.2513528902122776  4.2273558283741135 -7.7086124158329712
  5.4412584064799860  4.2273558283741135 -7.7086124158329694
  3.8082855114684131  0.0000000000000002  1.5953488545558767
  1.3816200047992948  0.0000000000000001  1.5953488545558763
  1.3816200047992948  0.0000000000000001  6.3290815111614389
  3.8082855114684131  0.0000000000000002  6.3290815111614389
  1.2133327533345588  4.2273558283741135  1.5953488545558767
  3.9765727629331482  4.2273558283741135  1.5953488545558769
  3.9765727629331482  4.2273558283741135  6.3290815111614407
  1.2133327533345588  4.2273558283741135  6.3290815111614389
  0.4709693557421109  6.3309086955692147  0.0000000000000004
  4.7189361605255966  2.1238029611790123  0.0000000000000004
  4.7189361605255966  6.3309086955692164  0.0000000000000007
  0.4709693557421109  2.1238029611790119  0.0000000000000002
  3.0659221138759651  2.1035528671951016  0.0000000000000003
  2.1239834023917425  6.3511587895531267  0.0000000000000005
  2.1239834023917425  2.1035528671951016  0.0000000000000003
  3.0659221138759651  6.3511587895531267  0.0000000000000006
  1.2846187378823872  7.2521318248218680  3.9622151828586580
  3.9052867783853200  1.2025798319263596  3.9622151828586580
  3.9052867783853200  7.2521318248218680  3.9622151828586594
  1.2846187378823872  1.2025798319263592  3.9622151828586576
  3.8795714960162413  3.0247759964477550  3.9622151828586580
  1.3103340202514664  5.4299356603004725  3.9622151828586580
  1.3103340202514664  3.0247759964477545  3.9622151828586589
  3.8795714960162413  5.4299356603004725  3.9622151828586580
