Ar  H 
 1.0000000000000000
     9.0516142827455504    0.0000000000000006    0.0000000000000006
     0.0000000000000000    7.5392788845512673    0.0000000000000005
     0.0000000000000000    0.0000000000000000    9.2825558630161371
 Ar  H  
  10  70
Cartesian
  0.0000000000000000  0.0000000000000000  4.6412779315080686
  4.5258071413727752  3.7696394422756350  4.6412779315080694
  2.2629035706863876  1.8848197211378175  0.0000000000000003
  6.7887107120591628  1.8848197211378173  0.0000000000000005
  6.7887107120591628  5.6544591634134509  0.0000000000000008
  2.2629035706863876  5.6544591634134509  0.0000000000000005
  2.2629035706863876  1.8848197211378175  4.6412779315080677
  6.7887107120591628  1.8848197211378173  4.6412779315080694
  6.7887107120591628  5.6544591634134509  4.6412779315080694
  2.2629035706863876  5.6544591634134509  4.6412779315080694
  2.7932311798401597  2.9993355933772921  0.7950797000311290
 -2.7932311798401597 -2.9993355933772921  0.7950797000311284
 -2.7932311798401597  2.9993355933772921 -0.7950797000311287
  2.7932311798401597 -2.9993355933772921 -0.7950797000311287
 -2.7932311798401597 -2.9993355933772921 -0.7950797000311290
  2.7932311798401597  2.9993355933772921 -0.7950797000311284
  2.7932311798401597 -2.9993355933772921  0.7950797000311287
 -2.7932311798401597  2.9993355933772921  0.7950797000311287
  7.3190383212129335  6.7689750356529270  0.7950797000311296
  1.7325759615326155  0.7703038488983419  0.7950797000311288
  1.7325759615326155  6.7689750356529252 -0.7950797000311282
  7.3190383212129335  0.7703038488983422 -0.7950797000311283
  1.7325759615326155  0.7703038488983419 -0.7950797000311286
  7.3190383212129335  6.7689750356529270 -0.7950797000311278
  7.3190383212129335  0.7703038488983422  0.7950797000311292
  1.7325759615326155  6.7689750356529252  0.7950797000311293
  1.1243877011550711  6.5609658313665431  2.4807256033249749
  7.9272265815904790  0.9783130531847259  2.4807256033249749
  7.9272265815904790  6.5609658313665431  6.8018302596911635
  1.1243877011550711  0.9783130531847254  6.8018302596911626
  7.9272265815904790  0.9783130531847259  6.8018302596911635
  1.1243877011550711  6.5609658313665431  6.8018302596911635
  1.1243877011550711  0.9783130531847254  2.4807256033249745
  7.9272265815904790  6.5609658313665431  2.4807256033249754
  5.6501948425278465  2.7913263890909086  2.4807256033249749
  3.4014194402177034  4.7479524954603596  2.4807256033249749
  3.4014194402177034  2.7913263890909086  6.8018302596911626
  5.6501948425278465  4.7479524954603596  6.8018302596911635
  3.4014194402177034  4.7479524954603596  6.8018302596911635
  5.6501948425278465  2.7913263890909086  6.8018302596911635
  5.6501948425278465  4.7479524954603596  2.4807256033249749
  3.4014194402177034  2.7913263890909086  2.4807256033249749
  2.0642138804706582  4.6946551662883786  6.6489537848384650
  6.9874004022748908  2.8446237182628900  6.6489537848384659
  6.9874004022748908  4.6946551662883778  2.6336020781776726
  2.0642138804706582  2.8446237182628900  2.6336020781776721
  6.9874004022748908  2.8446237182628900  2.6336020781776721
  2.0642138804706582  4.6946551662883786  2.6336020781776721
  2.0642138804706582  2.8446237182628900  6.6489537848384650
  6.9874004022748908  4.6946551662883778  6.6489537848384659
  6.5900210218434339  0.9250157240127445  6.6489537848384659
  2.4615932609021169  6.6142631605385231  6.6489537848384659
  2.4615932609021169  0.9250157240127441  2.6336020781776717
  6.5900210218434339  6.6142631605385240  2.6336020781776726
  2.4615932609021169  6.6142631605385231  2.6336020781776721
  6.5900210218434339  0.9250157240127445  2.6336020781776721
  6.5900210218434339  6.6142631605385240  6.6489537848384659
  2.4615932609021169  0.9250157240127441  6.6489537848384650
  1.3724112407127462  0.8914141691176938  5.5591925607443482
  7.6792030420328041  6.6478647154335757  5.5591925607443491
  7.6792030420328041  0.8914141691176942  3.7233633022717898
  1.3724112407127462  6.6478647154335748  3.7233633022717898
  7.6792030420328041  6.6478647154335757  3.7233633022717902
  1.3724112407127462  0.8914141691176938  3.7233633022717894
  1.3724112407127462  6.6478647154335748  5.5591925607443491
  7.6792030420328041  0.8914141691176942  5.5591925607443491
  5.8982183820855214  4.6610536113933279  5.5591925607443491
  3.1533959006600289  2.8782252731579403  5.5591925607443482
  3.1533959006600289  4.6610536113933279  3.7233633022717898
  5.8982183820855214  2.8782252731579407  3.7233633022717898
  3.1533959006600289  2.8782252731579403  3.7233633022717898
  5.8982183820855214  4.6610536113933279  3.7233633022717898
  5.8982183820855214  2.8782252731579407  5.5591925607443491
  3.1533959006600289  4.6610536113933279  5.5591925607443491
  4.5258071413727752  0.0000000000000003  4.6412779315080677
  0.0000000000000000  3.7696394422756336  4.6412779315080686
  7.2387602964824103  0.0000000000000004  0.0000000000000004
  1.8128539862631401  0.0000000000000001  0.0000000000000001
  2.7129531551096351  3.7696394422756336  0.0000000000000004
  6.3386611276359153  3.7696394422756341  0.0000000000000006
