Ar  H 
 1.0000000000000000
     9.1156029663766951    0.0000000000000006    0.0000000000000006
     0.0000000000000000    7.7968455530399305    0.0000000000000005
     0.0000000000000000    0.0000000000000000    7.2851261515841115
 Ar  H  
   6  44
Cartesian
  4.5578014831883475  0.0000000000000003  0.0000000000000003
  0.0000000000000000  3.8984227765199648  0.0000000000000002
  2.2789007415941738  1.9492113882599829  0.0000000000000003
  6.8367022247825213  1.9492113882599829  0.0000000000000005
  6.8367022247825213  5.8476341647799472  0.0000000000000008
  2.2789007415941738  5.8476341647799481  0.0000000000000005
  8.4838495560645448  6.3070149976576921  3.2408815630626520
 -8.4838495560645448 -6.3070149976576921  3.2408815630626502
 -8.4838495560645448  6.3070149976576895 -3.2408815630626506
  8.4838495560645448 -6.3070149976576895 -3.2408815630626511
 -8.4838495560645448 -6.3070149976576921 -3.2408815630626520
  8.4838495560645448  6.3070149976576921 -3.2408815630626502
  8.4838495560645448 -6.3070149976576895  3.2408815630626506
 -8.4838495560645448  6.3070149976576895  3.2408815630626511
 13.0416510392528924 10.2054377741776552  3.2408815630626520
 -3.9260480728761968 -2.4085922211377260  3.2408815630626502
 -3.9260480728761968 10.2054377741776570 -3.2408815630626502
 13.0416510392528924 -2.4085922211377246 -3.2408815630626502
 -3.9260480728761968 -2.4085922211377260 -3.2408815630626515
 13.0416510392528924 10.2054377741776552 -3.2408815630626497
 13.0416510392528924 -2.4085922211377246  3.2408815630626511
 -3.9260480728761968 10.2054377741776570  3.2408815630626515
  2.2789007415941738  1.9492113882599829  3.6425630757920562
  6.8367022247825213  1.9492113882599829  3.6425630757920557
  6.8367022247825213  5.8476341647799472  3.6425630757920566
  2.2789007415941738  5.8476341647799481  3.6425630757920557
  3.8316140704137163  0.0000000000000002  3.6425630757920562
  5.2839888959629784  0.0000000000000003  3.6425630757920562
  8.3894155536020634  3.8984227765199653  3.6425630757920566
  0.7261874127746312  3.8984227765199648  3.6425630757920562
  0.0000000000000000  2.7090795833806385  0.0000000000000002
  0.0000000000000000  5.0877659696592925  0.0000000000000003
  4.5578014831883475  6.6075023599006029  0.0000000000000007
  4.5578014831883475  1.1893431931393272  0.0000000000000004
  7.2345714416377707  0.0000000000000004  6.2725997239383142
  1.8810315247389240  0.0000000000000001  6.2725997239383133
  1.8810315247389240  0.0000000000000001  1.0125264276457970
  7.2345714416377707  0.0000000000000004  1.0125264276457975
  2.6767699584494236  3.8984227765199648  6.2725997239383142
  6.4388330079272720  3.8984227765199653  6.2725997239383142
  6.4388330079272720  3.8984227765199653  1.0125264276457977
  2.6767699584494236  3.8984227765199648  1.0125264276457975
  4.8563813826562887  0.0000000000000003  1.0162261173598266
  4.2592215837204064  0.0000000000000003  1.0162261173598266
  4.2592215837204064  0.0000000000000003  6.2689000342242842
  4.8563813826562887  0.0000000000000003  6.2689000342242842
  0.2985798994679412  3.8984227765199648  1.0162261173598268
  8.8170230669087530  3.8984227765199653  1.0162261173598273
  8.8170230669087530  3.8984227765199653  6.2689000342242860
  0.2985798994679412  3.8984227765199648  6.2689000342242842
