Ar  H 
 1.0000000000000000
    10.5659921054984682    0.0000000000000006    0.0000000000000006
     0.0000000000000000    3.2500489395004846    0.0000000000000002
     0.0000000000000000    0.0000000000000000    5.5795008853301029
 Ar  H  
   4  72
Cartesian
  5.2829960527492341  0.0000000000000003  2.7897504426650519
  0.0000000000000000  1.6250244697502423  2.7897504426650515
  0.0000000000000000  0.0000000000000000  2.7897504426650515
  5.2829960527492341  1.6250244697502423  2.7897504426650519
  2.2114846204112184  2.6681414260312133  3.0861637018846517
 -2.2114846204112184 -2.6681414260312133  3.0861637018846508
 -2.2114846204112184  2.6681414260312128 -3.0861637018846513
  2.2114846204112184 -2.6681414260312128 -3.0861637018846513
 -2.2114846204112184 -2.6681414260312133 -3.0861637018846517
  2.2114846204112184  2.6681414260312133 -3.0861637018846508
  2.2114846204112184 -2.6681414260312128  3.0861637018846513
 -2.2114846204112184  2.6681414260312128  3.0861637018846513
  7.4944806731604512  4.2931658957814562  3.0861637018846522
  3.0715114323380153 -1.0431169562809706  3.0861637018846513
  3.0715114323380153  4.2931658957814545 -3.0861637018846508
  7.4944806731604512 -1.0431169562809703 -3.0861637018846508
  3.0715114323380153 -1.0431169562809706 -3.0861637018846513
  7.4944806731604512  4.2931658957814562 -3.0861637018846504
  7.4944806731604512 -1.0431169562809703  3.0861637018846517
  3.0715114323380153  4.2931658957814545  3.0861637018846517
  1.4291051843578215  2.1317371948224602  4.2441535462408053
  9.1368869211406469  1.1183117446780244  4.2441535462408071
  9.1368869211406469  2.1317371948224610  1.3353473390892985
  1.4291051843578215  1.1183117446780237  1.3353473390892978
  9.1368869211406469  1.1183117446780244  1.3353473390892983
  1.4291051843578215  2.1317371948224602  1.3353473390892978
  1.4291051843578215  1.1183117446780237  4.2441535462408053
  9.1368869211406469  2.1317371948224610  4.2441535462408071
  6.7121012371070563  0.5067127250722189  4.2441535462408053
  3.8538908683914124  2.7433362144282665  4.2441535462408053
  3.8538908683914124  0.5067127250722185  1.3353473390892980
  6.7121012371070563  2.7433362144282665  1.3353473390892983
  3.8538908683914124  2.7433362144282665  1.3353473390892980
  6.7121012371070563  0.5067127250722189  1.3353473390892980
  6.7121012371070563  2.7433362144282665  4.2441535462408071
  3.8538908683914124  0.5067127250722185  4.2441535462408053
  9.3670758440178155  2.5844395706688981  4.9282464252852307
  1.1989162614806530  0.6656093688315865  4.9282464252852298
  1.1989162614806530  2.5844395706688976  0.6512544600448738
  9.3670758440178155  0.6656093688315871  0.6512544600448743
  1.1989162614806530  0.6656093688315865  0.6512544600448736
  9.3670758440178155  2.5844395706688981  0.6512544600448744
  9.3670758440178155  0.6656093688315871  4.9282464252852307
  1.1989162614806530  2.5844395706688976  4.9282464252852298
  4.0840797912685813  0.9594151009186560  4.9282464252852298
  6.4819123142298869  2.2906338385818290  4.9282464252852307
  6.4819123142298869  0.9594151009186562  0.6512544600448740
  4.0840797912685813  2.2906338385818290  0.6512544600448739
  6.4819123142298869  2.2906338385818290  0.6512544600448741
  4.0840797912685813  0.9594151009186560  0.6512544600448739
  4.0840797912685813  2.2906338385818290  4.9282464252852298
  6.4819123142298869  0.9594151009186562  4.9282464252852307
  3.4503210778376237  2.8205626943948721  3.8496499341573736
  7.1156710276608450  0.4294862451056125  3.8496499341573736
  7.1156710276608450  2.8205626943948729  1.7298509511727307
  3.4503210778376237  0.4294862451056123  1.7298509511727302
  7.1156710276608450  0.4294862451056125  1.7298509511727305
  3.4503210778376237  2.8205626943948721  1.7298509511727305
  3.4503210778376237  0.4294862451056123  3.8496499341573736
  7.1156710276608450  2.8205626943948729  3.8496499341573736
  8.7333171305868582  1.1955382246446304  3.8496499341573736
  1.8326749749116107  2.0545107148558541  3.8496499341573736
  1.8326749749116107  1.1955382246446304  1.7298509511727302
  8.7333171305868582  2.0545107148558546  1.7298509511727307
  1.8326749749116107  2.0545107148558541  1.7298509511727302
  8.7333171305868582  1.1955382246446304  1.7298509511727307
  8.7333171305868582  2.0545107148558546  3.8496499341573736
  1.8326749749116107  1.1955382246446304  3.8496499341573731
  0.0000000000000000  1.6250244697502423  4.0631875782227214
  0.0000000000000000  1.6250244697502423  1.5163133071073818
  5.2829960527492341  0.0000000000000003  4.0631875782227214
  5.2829960527492341  0.0000000000000003  1.5163133071073820
  0.0000000000000000  1.6250244697502423  0.3559444546353586
  0.0000000000000000  1.6250244697502423  5.2235564306947442
  5.2829960527492341  0.0000000000000003  0.3559444546353588
  5.2829960527492341  0.0000000000000003  5.2235564306947451
