Ar  H 
 1.0000000000000000
     7.9011863926624315    0.0000000000000005    0.0000000000000005
     0.0000000000000000    4.6692765297977141    0.0000000000000003
     0.0000000000000000    0.0000000000000000    6.9198337196676949
 Ar  H  
  10   4
Cartesian
  0.0000000000000000  0.0000000000000000  3.4599168598338474
  3.9505931963312158  2.3346382648988575  3.4599168598338479
  1.9752965981656079  1.1673191324494288  0.0000000000000002
  5.9258897944968236  1.1673191324494290  0.0000000000000004
  5.9258897944968236  3.5019573973482863  0.0000000000000006
  9.8764829908280394  3.5019573973482863  0.0000000000000008
  1.9752965981656079  1.1673191324494288  3.4599168598338474
  5.9258897944968236  1.1673191324494290  3.4599168598338479
  5.9258897944968236  3.5019573973482863  3.4599168598338479
  1.9752965981656079  3.5019573973482858  3.4599168598338479
  3.9505931963312158  0.0000000000000002  0.0000000000000002
  0.0000000000000000  2.3346382648988571  0.0000000000000001
  3.9505931963312158  0.0000000000000002  3.4599168598338479
  0.0000000000000000  2.3346382648988571  3.4599168598338474
