Ar  H 
 1.0000000000000000
     2.9056134819586137    0.0000000000000002    0.0000000000000002
     0.0000000000000000    3.9594704511376264    0.0000000000000002
     0.0000000000000000    0.0000000000000000    4.7152414370338827
 Ar  H  
   2  20
Cartesian
  1.4528067409793066  0.0000000000000001  2.3576207185169409
  0.0000000000000000  1.9797352255688132  2.3576207185169409
  0.0000000000000000  0.0000000000000000  0.0000000000000000
  1.4528067409793066  1.9797352255688132  0.0000000000000002
  0.0000000000000000  0.0000000000000000  2.3576207185169413
  1.4528067409793066  1.9797352255688132  2.3576207185169409
  0.6437817173232617  0.0000000000000000  0.0000000000000000
 -0.6437817173232617 -0.0000000000000000 -0.0000000000000000
  2.0965884583025680  1.9797352255688134  0.0000000000000002
  0.8090250236560450  1.9797352255688132  0.0000000000000002
  0.0000000000000000  0.3663087757951478  2.3576207185169413
  0.0000000000000000  3.5931616753424787  2.3576207185169409
  1.4528067409793066  2.3460440013639610  2.3576207185169418
  1.4528067409793066  1.6134264497736654  2.3576207185169409
  0.0000000000000000  0.0000000000000000  0.7092803444894137
  0.0000000000000000  0.0000000000000000  4.0059610925444691
  1.4528067409793066  1.9797352255688132  0.7092803444894139
  1.4528067409793066  1.9797352255688132  4.0059610925444682
  0.0000000000000000  0.0000000000000000  3.3466476949112409
  0.0000000000000000  0.0000000000000000  1.3685937421226420
  1.4528067409793066  1.9797352255688132  3.3466476949112409
  1.4528067409793066  1.9797352255688132  1.3685937421226422
