Ar  H 
 1.0000000000000000
     4.7451195867719242    0.0000000000000003    0.0000000000000003
     0.0000000000000000   11.2965741100749089    0.0000000000000007
     0.0000000000000000    0.0000000000000000    4.9634082847398160
 Ar  H  
   4  44
Cartesian
  0.0000000000000000  0.0000000000000000  0.0000000000000000
  2.3725597933859621  5.6482870550374544  0.0000000000000005
  2.3725597933859621  0.0000000000000001  2.4817041423699080
  0.0000000000000000  5.6482870550374544  2.4817041423699084
  1.1855883187395000  2.3029955307176500  3.6584636851682761
 -1.1855883187395000 -2.3029955307176500  3.6584636851682761
 -1.1855883187395000  2.3029955307176504 -3.6584636851682761
  1.1855883187395000 -2.3029955307176504 -3.6584636851682761
 -1.1855883187395000 -2.3029955307176500 -3.6584636851682761
  1.1855883187395000  2.3029955307176500 -3.6584636851682761
  1.1855883187395000 -2.3029955307176504  3.6584636851682761
 -1.1855883187395000  2.3029955307176504  3.6584636851682761
  3.5581481121254623  7.9512825857551048  3.6584636851682770
  1.1869714746464621  3.3452915243198040  3.6584636851682766
  1.1869714746464621  7.9512825857551048 -3.6584636851682757
  3.5581481121254623  3.3452915243198040 -3.6584636851682757
  1.1869714746464621  3.3452915243198040 -3.6584636851682757
  3.5581481121254623  7.9512825857551048 -3.6584636851682752
  3.5581481121254623  3.3452915243198040  3.6584636851682766
  1.1869714746464621  7.9512825857551048  3.6584636851682766
  0.1979952640680216  0.9382698766328709  3.9097066929421493
  4.5471243227039029 10.3583042334420359  3.9097066929421502
  4.5471243227039029  0.9382698766328712  1.0537015917976671
  0.1979952640680216 10.3583042334420377  1.0537015917976673
  4.5471243227039029 10.3583042334420359  1.0537015917976678
  0.1979952640680216  0.9382698766328709  1.0537015917976666
  0.1979952640680216 10.3583042334420377  3.9097066929421498
  4.5471243227039029  0.9382698766328712  3.9097066929421498
  2.5705550574539839  6.5865569316703256  3.9097066929421498
  2.1745645293179403  4.7100171784045841  3.9097066929421498
  2.1745645293179403  6.5865569316703256  1.0537015917976671
  2.5705550574539839  4.7100171784045841  1.0537015917976673
  2.1745645293179403  4.7100171784045841  1.0537015917976671
  2.5705550574539839  6.5865569316703256  1.0537015917976673
  2.5705550574539839  4.7100171784045841  3.9097066929421498
  2.1745645293179403  6.5865569316703256  3.9097066929421498
  2.3725597933859621  0.0000000000000001  0.0000000000000001
  0.0000000000000000  5.6482870550374544  0.0000000000000003
  0.0000000000000000  0.0000000000000000  2.4817041423699080
  2.3725597933859621  5.6482870550374544  2.4817041423699084
  1.6359414897221458  0.0000000000000001  0.0000000000000001
  3.1091780970497775  0.0000000000000002  0.0000000000000002
  4.0085012831081084  5.6482870550374544  0.0000000000000006
  0.7366183036638160  5.6482870550374544  0.0000000000000004
  0.0000000000000000  0.9215668245379236  0.0000000000000001
  0.0000000000000000 10.3750072855369861  0.0000000000000006
  2.3725597933859621  6.5698538795753780  0.0000000000000005
  2.3725597933859621  4.7267202304995308  0.0000000000000004
