Ar  H 
 1.0000000000000000
     7.0529980202550817    0.0000000000000004    0.0000000000000004
     0.0000000000000000   12.1969967354733289    0.0000000000000007
     0.0000000000000000    0.0000000000000000    7.6762844760519577
 Ar  H  
   6  48
Cartesian
  0.0000000000000000  0.0000000000000000  0.0000000000000000
  3.5264990101275409  6.0984983677366635  0.0000000000000006
  3.5264990101275409  0.0000000000000002  0.0000000000000002
  0.0000000000000000  6.0984983677366644  0.0000000000000004
  0.0000000000000000  0.0000000000000000  3.8381422380259789
  3.5264990101275409  6.0984983677366635  3.8381422380259793
  2.5006289461241553  7.3822865268336448  5.3299809181794791
 -2.5006289461241553 -7.3822865268336448  5.3299809181794782
 -2.5006289461241553  7.3822865268336448 -5.3299809181794782
  2.5006289461241553 -7.3822865268336448 -5.3299809181794791
 -2.5006289461241553 -7.3822865268336448 -5.3299809181794791
  2.5006289461241553  7.3822865268336448 -5.3299809181794782
  2.5006289461241553 -7.3822865268336448  5.3299809181794782
 -2.5006289461241553  7.3822865268336448  5.3299809181794791
  6.0271279562516975 13.4807848945703093  5.3299809181794799
  1.0258700640033853 -1.2837881590969800  5.3299809181794791
  1.0258700640033853 13.4807848945703093 -5.3299809181794782
  6.0271279562516975 -1.2837881590969795 -5.3299809181794782
  1.0258700640033853 -1.2837881590969800 -5.3299809181794791
  6.0271279562516975 13.4807848945703093 -5.3299809181794773
  6.0271279562516975 -1.2837881590969795  5.3299809181794791
  1.0258700640033853 13.4807848945703093  5.3299809181794799
  6.1514836213554291  0.0000000000000004  3.8381422380259793
  0.9015143988996523  0.0000000000000001  3.8381422380259789
  2.6249846112278892  6.0984983677366635  3.8381422380259793
  4.4280134090271934  6.0984983677366635  3.8381422380259793
  0.0000000000000000  0.0000000000000000  1.3480639415341087
  0.0000000000000000  0.0000000000000000  6.3282205345178486
  3.5264990101275409  6.0984983677366635  1.3480639415341096
  3.5264990101275409  6.0984983677366635  6.3282205345178495
  0.0000000000000000  0.4037205935023653  1.0935720852892545
  0.0000000000000000 11.7932761419709635  1.0935720852892552
  0.0000000000000000  0.4037205935023653  6.5827123907627030
  0.0000000000000000 11.7932761419709635  6.5827123907627048
  3.5264990101275409  6.5022189612390298  1.0935720852892554
  3.5264990101275409  5.6947777742342982  1.0935720852892554
  3.5264990101275409  6.5022189612390298  6.5827123907627048
  3.5264990101275409  5.6947777742342982  6.5827123907627048
  3.0980727264227532 11.2115169546229030  0.0000000000000009
  3.9549252938323289  0.9854797808504261  0.0000000000000003
  3.9549252938323289 11.2115169546229030  0.0000000000000009
  3.0980727264227532  0.9854797808504261  0.0000000000000003
  6.6245717365502932  5.1130185868862377  0.0000000000000007
  0.4284262837047881  7.0839781485870903  0.0000000000000005
  0.4284262837047881  5.1130185868862386  0.0000000000000003
  6.6245717365502932  7.0839781485870903  0.0000000000000008
  4.5789707175037391 11.7915701440183813  0.0000000000000010
  2.4740273027513426  0.4054265914549471  0.0000000000000002
  2.4740273027513426 11.7915701440183813  0.0000000000000009
  4.5789707175037391  0.4054265914549472  0.0000000000000003
  1.0524717073761989  5.6930717762817178  0.0000000000000004
  6.0005263128788835  6.5039249591916111  0.0000000000000008
  6.0005263128788835  5.6930717762817178  0.0000000000000007
  1.0524717073761989  6.5039249591916111  0.0000000000000005
