Ar  H 
 1.0000000000000000
     5.1337521611783110    0.0000000000000003    0.0000000000000003
     0.0000000000000000    3.4591514516791335    0.0000000000000002
     0.0000000000000000    0.0000000000000000    5.9377336493184396
 Ar  H  
   6  48
Cartesian
  0.0000000000000000  0.0000000000000000  0.0000000000000000
  2.5668760805891555  1.7295757258395670  0.0000000000000003
  2.5668760805891555  0.0000000000000002  2.9688668246592198
  0.0000000000000000  1.7295757258395665  2.9688668246592198
  0.0000000000000000  0.0000000000000000  2.9688668246592198
  2.5668760805891555  1.7295757258395670  2.9688668246592202
  1.4287764066792810  1.5135867494088739  0.4351190330798476
 -1.4287764066792810 -1.5135867494088739  0.4351190330798473
 -1.4287764066792810  1.5135867494088739 -0.4351190330798475
  1.4287764066792810 -1.5135867494088739 -0.4351190330798475
 -1.4287764066792810 -1.5135867494088739 -0.4351190330798476
  1.4287764066792810  1.5135867494088739 -0.4351190330798473
  1.4287764066792810 -1.5135867494088739  0.4351190330798475
 -1.4287764066792810  1.5135867494088739  0.4351190330798475
  3.9956524872684365  3.2431624752484409  0.4351190330798479
  1.1380996739098745  0.2159889764306928  0.4351190330798475
  1.1380996739098745  3.2431624752484409 -0.4351190330798472
  3.9956524872684365  0.2159889764306930 -0.4351190330798472
  1.1380996739098745  0.2159889764306928 -0.4351190330798474
  3.9956524872684365  3.2431624752484409 -0.4351190330798470
  3.9956524872684365  0.2159889764306930  0.4351190330798477
  1.1380996739098745  3.2431624752484409  0.4351190330798478
  1.5253660038171499  0.4912761642222560  4.2392724293110664
  3.6083861573611613  2.9678752874568772  4.2392724293110673
  3.6083861573611613  0.4912761642222561  1.6984612200073732
  1.5253660038171499  2.9678752874568772  1.6984612200073732
  3.6083861573611613  2.9678752874568772  1.6984612200073734
  1.5253660038171499  0.4912761642222560  1.6984612200073732
  1.5253660038171499  2.9678752874568772  4.2392724293110673
  3.6083861573611613  0.4912761642222561  4.2392724293110673
  4.0922420844063057  2.2208518900618230  4.2392724293110673
  1.0415100767720056  1.2382995616173107  4.2392724293110664
  1.0415100767720056  2.2208518900618222  1.6984612200073732
  4.0922420844063057  1.2382995616173111  1.6984612200073737
  1.0415100767720056  1.2382995616173107  1.6984612200073732
  4.0922420844063057  2.2208518900618230  1.6984612200073734
  4.0922420844063057  1.2382995616173111  4.2392724293110673
  1.0415100767720056  2.2208518900618222  4.2392724293110664
  3.3412758274676468  0.0000000000000002  0.0000000000000002
  1.7924763337106644  0.0000000000000001  0.0000000000000001
  0.7743997468784911  1.7295757258395665  0.0000000000000002
  4.3593524142998197  1.7295757258395668  0.0000000000000004
  4.3686650765085373  0.0000000000000003  2.9688668246592202
  0.7650870846697734  0.0000000000000000  2.9688668246592198
  1.8017889959193822  1.7295757258395665  2.9688668246592198
  3.3319631652589288  1.7295757258395668  2.9688668246592202
  0.0000000000000000  2.6620345063393245  2.9688668246592198
  0.0000000000000000  0.7971169453398087  2.9688668246592198
  2.5668760805891555  0.9324587804997578  2.9688668246592198
  2.5668760805891555  2.5266926711793758  2.9688668246592202
  0.0000000000000000  1.7295757258395665  1.9954776390111260
  0.0000000000000000  1.7295757258395665  3.9422560103073141
  2.5668760805891555  0.0000000000000002  1.9954776390111257
  2.5668760805891555  0.0000000000000002  3.9422560103073141
