Ar  H 
 1.0000000000000000
    12.1739135400991874    0.0000000000000007    0.0000000000000007
     0.0000000000000000    4.7798667606879679    0.0000000000000003
     0.0000000000000000    0.0000000000000000    7.6397180351218372
 Ar  H  
  12  56
Cartesian
  0.0000000000000000  0.0000000000000000  0.0000000000000000
  6.0869567700495928  2.3899333803439844  0.0000000000000005
  6.0869567700495928  0.0000000000000004  0.0000000000000004
  0.0000000000000000  2.3899333803439839  0.0000000000000001
  3.0434783850247964  1.1949666901719922  0.0000000000000003
  9.1304351550743910  1.1949666901719929  0.0000000000000006
  9.1304351550743910  3.5849000705159764  0.0000000000000008
  3.0434783850247964  3.5849000705159759  0.0000000000000004
  3.0434783850247964  1.1949666901719922  3.8198590175609191
  9.1304351550743910  1.1949666901719929  3.8198590175609191
  9.1304351550743910  3.5849000705159764  3.8198590175609195
  3.0434783850247964  3.5849000705159759  3.8198590175609191
  1.5436425518979702  4.2256107147427331  5.3196471302423607
 -1.5436425518979702 -4.2256107147427331  5.3196471302423607
 -1.5436425518979702  4.2256107147427331 -5.3196471302423616
  1.5436425518979702 -4.2256107147427331 -5.3196471302423607
 -1.5436425518979702 -4.2256107147427331 -5.3196471302423607
  1.5436425518979702  4.2256107147427331 -5.3196471302423607
  1.5436425518979702 -4.2256107147427331  5.3196471302423616
 -1.5436425518979702  4.2256107147427331  5.3196471302423607
  7.6305993219475630  6.6155440950867179  5.3196471302423625
  4.5433142181516235 -1.8356773343987491  5.3196471302423607
  4.5433142181516235  6.6155440950867188 -5.3196471302423598
  7.6305993219475630 -1.8356773343987489 -5.3196471302423607
  4.5433142181516235 -1.8356773343987491 -5.3196471302423616
  7.6305993219475630  6.6155440950867179 -5.3196471302423607
  7.6305993219475630 -1.8356773343987489  5.3196471302423607
  4.5433142181516235  6.6155440950867188  5.3196471302423616
  2.9616044665259245  0.0000000000000002  6.1973759799045398
  9.2123090735732607  0.0000000000000006  6.1973759799045398
  9.2123090735732607  0.0000000000000006  1.4423420552172987
  2.9616044665259245  0.0000000000000002  1.4423420552172985
  9.0485612365755177  2.3899333803439844  6.1973759799045398
  3.1253523035236692  2.3899333803439839  6.1973759799045398
  3.1253523035236692  2.3899333803439839  1.4423420552172985
  9.0485612365755177  2.3899333803439844  1.4423420552172987
  9.7723038564946805  0.0000000000000006  4.5294341695858433
  2.4016096836045056  0.0000000000000001  4.5294341695858424
  2.4016096836045056  0.0000000000000001  3.1102838655359952
  9.7723038564946805  0.0000000000000006  3.1102838655359957
  3.6853470864450877  2.3899333803439848  4.5294341695858424
  8.4885664536540997  2.3899333803439844  4.5294341695858442
  8.4885664536540997  2.3899333803439844  3.1102838655359952
  3.6853470864450877  2.3899333803439848  3.1102838655359952
 11.7907961500954634  0.0000000000000007  1.6733147518648084
  0.3831173900037246  0.0000000000000000  1.6733147518648077
  0.3831173900037246  0.0000000000000000  5.9664032832570291
 11.7907961500954634  0.0000000000000007  5.9664032832570300
  5.7038393800458680  2.3899333803439844  1.6733147518648082
  6.4700741600533185  2.3899333803439844  1.6733147518648084
  6.4700741600533185  2.3899333803439844  5.9664032832570300
  5.7038393800458680  2.3899333803439844  5.9664032832570300
  0.9608581547894223  1.9878811586527452  3.8198590175609186
 11.2130553853097634  2.7919856020352234  3.8198590175609195
 11.2130553853097634  1.9878811586527458  3.8198590175609195
  0.9608581547894223  2.7919856020352234  3.8198590175609191
  7.0478149248390158  4.3778145389967298  3.8198590175609195
  5.1260986152601715  0.4020522216912391  3.8198590175609191
  5.1260986152601715  4.3778145389967298  3.8198590175609191
  7.0478149248390158  0.4020522216912392  3.8198590175609191
  4.4456963684780924  3.7609689192179654  3.8198590175609191
  7.7282171716210950  1.0188978414700036  3.8198590175609191
  7.7282171716210950  3.7609689192179654  3.8198590175609195
  4.4456963684780924  1.0188978414700034  3.8198590175609191
 10.5326531385276869  1.3710355388739817  3.8198590175609195
  1.6412604015715009  3.4088312218139869  3.8198590175609191
  1.6412604015715009  1.3710355388739810  3.8198590175609186
 10.5326531385276869  3.4088312218139878  3.8198590175609195
