Ar  H 
 1.0000000000000000
     5.4771751995010760    0.0000000000000003    0.0000000000000003
     0.0000000000000000    7.5109358054092450    0.0000000000000005
     0.0000000000000000    0.0000000000000000    2.8239865213501187
 Ar  H  
   2  22
Cartesian
  0.0000000000000000  0.0000000000000000  0.0000000000000000
  2.7385875997505380  3.7554679027046225  0.0000000000000004
  0.0000000000000000  0.0000000000000000  1.4119932606750594
  2.7385875997505380  3.7554679027046225  1.4119932606750598
  1.3692937998752690  1.8777339513523112  1.4119932606750596
  4.1078813996258070  1.8777339513523115  1.4119932606750598
  4.1078813996258070  5.6332018540569333  1.4119932606750600
  6.8464689993763450  5.6332018540569333  1.4119932606750598
  0.8692414559812086  0.0000000000000001  0.0000000000000001
  4.6079337435198671  0.0000000000000003  0.0000000000000003
  3.6078290557317465  3.7554679027046225  0.0000000000000005
  1.8693461437693297  3.7554679027046225  0.0000000000000003
  0.0000000000000000  1.7198928583352953  0.0000000000000001
  0.0000000000000000  5.7910429470739500  0.0000000000000004
  2.7385875997505380  5.4753607610399175  0.0000000000000005
  2.7385875997505380  2.0355750443693275  0.0000000000000003
  0.0000000000000000  3.0620038289239870  0.0000000000000002
  0.0000000000000000  4.4489319764852580  0.0000000000000003
  2.7385875997505380  6.8174717316286095  0.0000000000000006
  2.7385875997505380  0.6934640737806357  0.0000000000000002
  0.0000000000000000  4.9843718540704973  1.4119932606750594
  0.0000000000000000  2.5265639513387490  1.4119932606750596
  2.7385875997505380  1.2289039513658739  1.4119932606750596
  2.7385875997505380  6.2820318540433719  1.4119932606750596
