Ar  H 
 1.0000000000000000
     9.9879005555526916    0.0000000000000006    0.0000000000000006
     0.0000000000000000    8.7764945564040264    0.0000000000000005
     0.0000000000000000    0.0000000000000000    5.8825921827389518
 Ar  H  
   4  36
Cartesian
  2.4969751388881729  2.1941236391010062  2.9412960913694763
  7.4909254166645187  2.1941236391010071  2.9412960913694759
  7.4909254166645187  6.5823709173030212  2.9412960913694763
  2.4969751388881729  6.5823709173030203  2.9412960913694759
  4.8117492750904747  0.0000000000000003  2.9412960913694763
  5.1761512804622170  0.0000000000000003  2.9412960913694763
  9.8056995528668214  4.3882472782020141  2.9412960913694763
  0.1822010026858711  4.3882472782020132  2.9412960913694763
  0.0000000000000000  0.6051547225153782  2.9412960913694755
  0.0000000000000000  8.1713398338886485  2.9412960913694759
  4.9939502777763458  4.9934020007173912  2.9412960913694759
  4.9939502777763458  3.7830925556866357  2.9412960913694759
  0.0000000000000000  0.0000000000000000  1.3772756045789716
  0.0000000000000000  0.0000000000000000  4.5053165781599791
  4.9939502777763458  4.3882472782020123  1.3772756045789722
  4.9939502777763458  4.3882472782020123  4.5053165781599809
  2.4969751388881729  2.1941236391010062  5.1584109325521341
  7.4909254166645187  2.1941236391010071 -5.1584109325521332
  7.4909254166645187  6.5823709173030212 -5.1584109325521323
  2.4969751388881729  6.5823709173030203  5.1584109325521350
  7.4909254166645187  6.5823709173030212  5.1584109325521341
 12.4848756944408645  6.5823709173030212 -5.1584109325521332
 12.4848756944408645 10.9706181955050326 -5.1584109325521323
  7.4909254166645187 10.9706181955050326  5.1584109325521341
  2.4969751388881729  2.1941236391010062  1.8345877757484053
  7.4909254166645187  2.1941236391010071  4.0480044069905468
  7.4909254166645187  6.5823709173030212  4.0480044069905476
  2.4969751388881729  6.5823709173030203  1.8345877757484059
  7.4909254166645187  6.5823709173030212  1.8345877757484061
  2.4969751388881729  6.5823709173030203  4.0480044069905468
  2.4969751388881729  2.1941236391010062  4.0480044069905459
  7.4909254166645187  2.1941236391010071  1.8345877757484059
  2.4969751388881729  2.1941236391010062  4.3771612923644483
  7.4909254166645187  2.1941236391010071  1.5054308903745035
  7.4909254166645187  6.5823709173030212  1.5054308903745037
  2.4969751388881729  6.5823709173030203  4.3771612923644492
  7.4909254166645187  6.5823709173030212  4.3771612923644501
  2.4969751388881729  6.5823709173030203  1.5054308903745035
  2.4969751388881729  2.1941236391010062  1.5054308903745031
  7.4909254166645187  2.1941236391010071  4.3771612923644492
