Ar  H 
 1.0000000000000000
     9.4706666878167098    0.0000000000000006    0.0000000000000006
     0.0000000000000000    7.1029554755576010    0.0000000000000004
     0.0000000000000000    0.0000000000000000    5.4708166231722171
 Ar  H  
   6  40
Cartesian
  4.7353333439083549  0.0000000000000003  0.0000000000000003
  0.0000000000000000  3.5514777377788005  0.0000000000000002
  2.3676666719541775  1.7757388688894005  2.7354083115861090
  7.1030000158625324  1.7757388688894007  2.7354083115861085
  7.1030000158625324  5.3272166066682001  2.7354083115861094
  2.3676666719541775  5.3272166066682010  2.7354083115861085
  1.6020778065448775  0.2791699437615011  0.5740157964592628
 -1.6020778065448775 -0.2791699437615011  0.5740157964592626
 -1.6020778065448775  0.2791699437615008 -0.5740157964592628
  1.6020778065448775 -0.2791699437615008 -0.5740157964592625
 -1.6020778065448775 -0.2791699437615011 -0.5740157964592628
  1.6020778065448775  0.2791699437615011 -0.5740157964592626
  1.6020778065448775 -0.2791699437615008  0.5740157964592628
 -1.6020778065448775  0.2791699437615008  0.5740157964592625
  6.3374111504532324  3.8306476815403019  0.5740157964592633
  3.1332555373634774  3.2723077940172991  0.5740157964592630
  3.1332555373634774  3.8306476815403014 -0.5740157964592623
  6.3374111504532324  3.2723077940173000 -0.5740157964592622
  3.1332555373634774  3.2723077940172991 -0.5740157964592622
  6.3374111504532324  3.8306476815403019 -0.5740157964592619
  6.3374111504532324  3.2723077940173000  0.5740157964592632
  3.1332555373634774  3.8306476815403014  0.5740157964592632
  0.0000000000000000  6.4616448878392490  0.0000000000000004
  0.0000000000000000  0.6413105877183523  0.0000000000000000
  4.7353333439083549  2.9101671500604485  0.0000000000000005
  4.7353333439083549  4.1927883254971521  0.0000000000000005
  0.0000000000000000  0.0000000000000000  1.1270112619495862
  0.0000000000000000  0.0000000000000000  4.3438053612226311
  4.7353333439083549  3.5514777377788009  1.1270112619495867
  4.7353333439083549  3.5514777377788009  4.3438053612226311
  2.3676666719541775  1.7757388688894005  4.6844764577277491
  7.1030000158625324  1.7757388688894007  0.7863401654444676
  7.1030000158625324  5.3272166066682001  0.7863401654444678
  2.3676666719541775  5.3272166066682010  4.6844764577277500
  7.1030000158625324  5.3272166066682001  4.6844764577277509
  2.3676666719541775  5.3272166066682010  0.7863401654444675
  2.3676666719541775  1.7757388688894005  0.7863401654444673
  7.1030000158625324  1.7757388688894007  4.6844764577277509
  2.3676666719541775  1.7757388688894005  4.2190146951554839
  7.1030000158625324  1.7757388688894007  1.2518019280167327
  7.1030000158625324  5.3272166066682001  1.2518019280167330
  2.3676666719541775  5.3272166066682010  4.2190146951554848
  7.1030000158625324  5.3272166066682001  4.2190146951554857
  2.3676666719541775  5.3272166066682010  1.2518019280167330
  2.3676666719541775  1.7757388688894005  1.2518019280167327
  7.1030000158625324  1.7757388688894007  4.2190146951554848
