Ar  H 
 1.0000000000000000
     6.4872693092545610    0.0000000000000004    0.0000000000000004
     0.0000000000000000    8.2778641664303176    0.0000000000000005
     0.0000000000000000    0.0000000000000000    7.6362901502131129
 Ar  H  
   2  82
Cartesian
  3.2436346546272805  0.0000000000000002  0.0000000000000002
  0.0000000000000000  4.1389320832151588  0.0000000000000003
  4.5255577462625469  0.1572540739536679  0.3527197440237313
 -4.5255577462625469 -0.1572540739536679  0.3527197440237307
 -4.5255577462625469  0.1572540739536673 -0.3527197440237312
  4.5255577462625469 -0.1572540739536673 -0.3527197440237307
 -4.5255577462625469 -0.1572540739536679 -0.3527197440237313
  4.5255577462625469  0.1572540739536679 -0.3527197440237307
  4.5255577462625469 -0.1572540739536673  0.3527197440237312
 -4.5255577462625469  0.1572540739536673  0.3527197440237307
  7.7691924008898274  4.2961861571688269  0.3527197440237317
 -1.2819230916352669  3.9816780092614912  0.3527197440237312
 -1.2819230916352669  4.2961861571688260 -0.3527197440237308
  7.7691924008898274  3.9816780092614916 -0.3527197440237303
 -1.2819230916352669  3.9816780092614912 -0.3527197440237309
  7.7691924008898274  4.2961861571688269 -0.3527197440237302
  7.7691924008898274  3.9816780092614916  0.3527197440237317
 -1.2819230916352669  4.2961861571688260  0.3527197440237311
  3.8572355439538373  3.1370687595436761  3.3615235745606942
  2.6300337653007242  5.1407954068866415  3.3615235745606942
  2.6300337653007242  3.1370687595436757  4.2747665756524178
  3.8572355439538373  5.1407954068866415  4.2747665756524196
  2.6300337653007242  5.1407954068866415  4.2747665756524187
  3.8572355439538373  3.1370687595436761  4.2747665756524178
  3.8572355439538373  5.1407954068866415  3.3615235745606942
  2.6300337653007242  3.1370687595436757  3.3615235745606942
  0.6136008893265563  7.2760008427588350  3.3615235745606942
  5.8736684199280056  1.0018633236714833  3.3615235745606942
  5.8736684199280056  7.2760008427588350  4.2747665756524196
  0.6136008893265563  1.0018633236714829  4.2747665756524178
  5.8736684199280056  1.0018633236714833  4.2747665756524178
  0.6136008893265563  7.2760008427588350  4.2747665756524187
  0.6136008893265563  1.0018633236714829  3.3615235745606937
  5.8736684199280056  7.2760008427588350  3.3615235745606946
  0.7607364085311481  6.3239230199531633  0.3379293523732663
  5.7265329007234138  1.9539411464771550  0.3379293523732662
  5.7265329007234138  6.3239230199531633  7.2983607978398481
  0.7607364085311481  1.9539411464771546  7.2983607978398464
  5.7265329007234138  1.9539411464771550  7.2983607978398473
  0.7607364085311481  6.3239230199531633  7.2983607978398464
  0.7607364085311481  1.9539411464771546  0.3379293523732659
  5.7265329007234138  6.3239230199531633  0.3379293523732665
  4.0043710631584295  2.1849909367380049  0.3379293523732662
  2.4828982460961324  6.0928732296923132  0.3379293523732663
  2.4828982460961324  2.1849909367380045  7.2983607978398464
  4.0043710631584295  6.0928732296923132  7.2983607978398473
  2.4828982460961324  6.0928732296923132  7.2983607978398473
  4.0043710631584295  2.1849909367380049  7.2983607978398464
  4.0043710631584295  6.0928732296923132  0.3379293523732664
  2.4828982460961324  2.1849909367380045  0.3379293523732660
  5.5105023455631441  2.1698443227232787  0.9888994354870934
  0.9767669636914172  6.1080198437070399  0.9888994354870934
  0.9767669636914172  2.1698443227232782  6.6473907147260194
  5.5105023455631441  6.1080198437070399  6.6473907147260203
  0.9767669636914172  6.1080198437070399  6.6473907147260194
  5.5105023455631441  2.1698443227232787  6.6473907147260203
  5.5105023455631441  6.1080198437070399  0.9888994354870936
  0.9767669636914172  2.1698443227232782  0.9888994354870929
  2.2668676909358632  6.3087764059384366  0.9888994354870932
  4.2204016183186974  1.9690877604918811  0.9888994354870932
  4.2204016183186974  6.3087764059384366  6.6473907147260203
  2.2668676909358632  1.9690877604918811  6.6473907147260194
  4.2204016183186974  1.9690877604918811  6.6473907147260194
  2.2668676909358632  6.3087764059384366  6.6473907147260203
  2.2668676909358632  1.9690877604918811  0.9888994354870931
  4.2204016183186974  6.3087764059384366  0.9888994354870934
  3.4319257612928471  0.6544088619146400  7.0372639221215785
  3.0553435479617139  7.6234553045156783  7.0372639221215794
  3.0553435479617139  0.6544088619146400  0.5990262280915342
  3.4319257612928471  7.6234553045156783  0.5990262280915346
  3.0553435479617139  7.6234553045156783  0.5990262280915345
  3.4319257612928471  0.6544088619146400  0.5990262280915342
  3.4319257612928471  7.6234553045156783  7.0372639221215794
  3.0553435479617139  0.6544088619146400  7.0372639221215785
  0.1882911066655668  4.7933409451297981  7.0372639221215785
  6.2989782025889953  3.4845232213005195  7.0372639221215794
  6.2989782025889953  4.7933409451297981  0.5990262280915346
  0.1882911066655668  3.4845232213005191  0.5990262280915342
  6.2989782025889953  3.4845232213005195  0.5990262280915345
  0.1882911066655668  4.7933409451297981  0.5990262280915342
  0.1882911066655668  3.4845232213005191  7.0372639221215785
  6.2989782025889953  4.7933409451297981  7.0372639221215794
  3.2436346546272805  0.0000000000000002  3.8181450751065560
  0.0000000000000000  4.1389320832151588  3.8181450751065569
