Ar  H 
 1.0000000000000000
     7.9962956776381313    0.0000000000000005    0.0000000000000005
     0.0000000000000000   16.5294127104052997    0.0000000000000010
     0.0000000000000000    0.0000000000000000    4.9356707459147389
 Ar  H  
   8  70
Cartesian
  1.9990739194095328  4.1323531776013240  0.0000000000000004
  5.9972217582285996  4.1323531776013240  0.0000000000000006
  5.9972217582285996 12.3970595328039757  0.0000000000000011
  1.9990739194095328 12.3970595328039757  0.0000000000000009
  1.9990739194095328  4.1323531776013240  2.4678353729573699
  5.9972217582285996  4.1323531776013240  2.4678353729573694
  5.9972217582285996 12.3970595328039757  2.4678353729573708
  1.9990739194095328 12.3970595328039757  2.4678353729573703
  2.2505371175373403 15.1334212628578761  1.6152861077115714
 -2.2505371175373403 -15.1334212628578761  1.6152861077115692
 -2.2505371175373403 15.1334212628578726 -1.6152861077115692
  2.2505371175373403 -15.1334212628578726 -1.6152861077115710
 -2.2505371175373403 -15.1334212628578761 -1.6152861077115714
  2.2505371175373403 15.1334212628578761 -1.6152861077115692
  2.2505371175373403 -15.1334212628578726  1.6152861077115692
 -2.2505371175373403 15.1334212628578726  1.6152861077115710
  6.2486849563564064 23.3981276180605207  1.6152861077115721
  1.7476107212817260 -6.8687149076552254  1.6152861077115701
  1.7476107212817260 23.3981276180605207 -1.6152861077115688
  6.2486849563564064 -6.8687149076552254 -1.6152861077115703
  1.7476107212817260 -6.8687149076552254 -1.6152861077115703
  6.2486849563564064 23.3981276180605207 -1.6152861077115686
  6.2486849563564064 -6.8687149076552254  1.6152861077115703
  1.7476107212817260 23.3981276180605207  1.6152861077115719
  7.8412296772112606 11.8345168472506987  2.9598698085120558
  0.1550660004268707  4.6948958631545992  2.9598698085120549
  0.1550660004268707 11.8345168472506970  1.9758009374026850
  7.8412296772112606  4.6948958631546009  1.9758009374026846
  0.1550660004268707  4.6948958631545992  1.9758009374026846
  7.8412296772112606 11.8345168472506987  1.9758009374026855
  7.8412296772112606  4.6948958631546009  2.9598698085120554
  0.1550660004268707 11.8345168472506970  2.9598698085120554
  3.8430818383921950  3.5698104920480498  2.9598698085120549
  4.1532138392459377 12.9596022183572508  2.9598698085120554
  4.1532138392459377  3.5698104920480498  1.9758009374026848
  3.8430818383921950 12.9596022183572508  1.9758009374026850
  4.1532138392459377 12.9596022183572508  1.9758009374026850
  3.8430818383921950  3.5698104920480498  1.9758009374026848
  3.8430818383921950 12.9596022183572508  2.9598698085120549
  4.1532138392459377  3.5698104920480498  2.9598698085120549
  5.7376162519116223 11.6480666344534924  4.0508474598214921
  2.2586794257265090  4.8813460759518055  4.0508474598214912
  2.2586794257265090 11.6480666344534924  0.8848232860932483
  5.7376162519116223  4.8813460759518055  0.8848232860932481
  2.2586794257265090  4.8813460759518055  0.8848232860932478
  5.7376162519116223 11.6480666344534924  0.8848232860932486
  5.7376162519116223  4.8813460759518055  4.0508474598214921
  2.2586794257265090 11.6480666344534924  4.0508474598214921
  1.7394684130925566  3.3833602792508444  4.0508474598214912
  6.2568272645455743 13.1460524311544535  4.0508474598214921
  6.2568272645455743  3.3833602792508444  0.8848232860932480
  1.7394684130925566 13.1460524311544553  0.8848232860932482
  6.2568272645455743 13.1460524311544535  0.8848232860932487
  1.7394684130925566  3.3833602792508444  0.8848232860932478
  1.7394684130925566 13.1460524311544553  4.0508474598214921
  6.2568272645455743  3.3833602792508444  4.0508474598214921
  2.3163054968295858  5.5783425948442504  3.8279514445118816
  5.6799901808085469 10.9510701155610484  3.8279514445118825
  5.6799901808085469  5.5783425948442513  1.1077193014028577
  2.3163054968295858 10.9510701155610484  1.1077193014028579
  5.6799901808085469 10.9510701155610484  1.1077193014028581
  2.3163054968295858  5.5783425948442504  1.1077193014028575
  2.3163054968295858 10.9510701155610484  3.8279514445118821
  5.6799901808085469  5.5783425948442513  3.8279514445118825
  6.3144533356486514 13.8430489500468994  3.8279514445118825
  1.6818423419894799  2.6863637603583985  3.8279514445118821
  1.6818423419894799 13.8430489500468994  1.1077193014028579
  6.3144533356486514  2.6863637603583985  1.1077193014028575
  1.6818423419894799  2.6863637603583985  1.1077193014028572
  6.3144533356486514 13.8430489500468994  1.1077193014028583
  6.3144533356486514  2.6863637603583985  3.8279514445118821
  1.6818423419894799 13.8430489500468994  3.8279514445118825
  3.9981478388190657  0.0000000000000002  2.4678353729573699
  0.0000000000000000  8.2647063552026481  2.4678353729573694
  0.0000000000000000  8.2647063552026481  1.8005831450619767
  0.0000000000000000  8.2647063552026481  3.1350876008527631
  3.9981478388190657  0.0000000000000002  1.8005831450619767
  3.9981478388190657  0.0000000000000002  3.1350876008527631
