Ar  H 
 1.0000000000000000
     5.1499548968172491    0.0000000000000003    0.0000000000000003
     0.0000000000000000    5.1065381257584894    0.0000000000000003
     0.0000000000000000    0.0000000000000000    9.9041351433608522
 Ar  H  
   2  34
Cartesian
  2.5749774484086245  0.0000000000000002  0.0000000000000002
  0.0000000000000000  2.5532690628792447  0.0000000000000002
  0.0000000000000000  0.0000000000000000  0.0000000000000000
  2.5749774484086245  2.5532690628792443  0.0000000000000003
  4.3875868778185891  0.0000000000000003  0.0000000000000003
  0.7623680189986602  0.0000000000000000  0.0000000000000000
  1.8126094294099644  2.5532690628792447  0.0000000000000003
  3.3373454674072849  2.5532690628792443  0.0000000000000004
  0.0000000000000000  4.4879110932669422  0.0000000000000003
  0.0000000000000000  0.6186270324915476  0.0000000000000000
  2.5749774484086245  1.9346420303876972  0.0000000000000003
  2.5749774484086245  3.1718960953707924  0.0000000000000004
  1.2874887242043123  1.2766345314396221  8.1384768546542698
  3.8624661726129368  1.2766345314396226 -8.1384768546542716
  3.8624661726129368  3.8299035943188673 -8.1384768546542716
  1.2874887242043123  3.8299035943188668  8.1384768546542698
  3.8624661726129368  3.8299035943188673  8.1384768546542698
  6.4374436210215613  3.8299035943188673 -8.1384768546542716
  6.4374436210215613  6.3831726571981120 -8.1384768546542716
  3.8624661726129368  6.3831726571981120  8.1384768546542698
  1.2874887242043123  1.2766345314396221  1.1582240036401470
  3.8624661726129368  1.2766345314396226  8.7459111397207057
  3.8624661726129368  3.8299035943188673  8.7459111397207057
  1.2874887242043123  3.8299035943188668  1.1582240036401472
  3.8624661726129368  3.8299035943188673  1.1582240036401472
  1.2874887242043123  3.8299035943188668  8.7459111397207057
  1.2874887242043123  1.2766345314396221  8.7459111397207057
  3.8624661726129368  1.2766345314396226  1.1582240036401472
  1.5406365859337234  2.7365399829387265  4.9520675716804261
  3.6093183108835256  2.3699981428197634  4.9520675716804261
  3.6093183108835256  2.7365399829387265  4.9520675716804261
  1.5406365859337234  2.3699981428197630  4.9520675716804261
  4.1156140343423475  0.1832709200594820  4.9520675716804261
  1.0343408624749011  4.9232672056990081  4.9520675716804261
  1.0343408624749011  0.1832709200594818  4.9520675716804261
  4.1156140343423475  4.9232672056990081  4.9520675716804270
