Ar  H 
 1.0000000000000000
     5.3000115829713392    0.0000000000000003    0.0000000000000003
     0.0000000000000000    7.7829552343994326    0.0000000000000005
     0.0000000000000000    0.0000000000000000    6.4731092191890678
 Ar  H  
  12  50
Cartesian
  0.0000000000000000  0.0000000000000000  0.0000000000000000
  2.6500057914856696  3.8914776171997159  0.0000000000000004
  2.6500057914856696  0.0000000000000002  0.0000000000000002
  0.0000000000000000  3.8914776171997163  0.0000000000000002
  1.3250028957428348  1.9457388085998579  0.0000000000000002
  3.9750086872285038  1.9457388085998581  0.0000000000000004
  3.9750086872285038  5.8372164257995749  0.0000000000000006
  1.3250028957428348  5.8372164257995749  0.0000000000000004
  1.3250028957428348  1.9457388085998579  3.2365546095945334
  3.9750086872285038  1.9457388085998581  3.2365546095945339
  3.9750086872285038  5.8372164257995749  3.2365546095945339
  1.3250028957428348  5.8372164257995749  3.2365546095945339
  2.9086624783495556  7.0781383328022844  1.1045901561124627
 -2.9086624783495556 -7.0781383328022844  1.1045901561124616
 -2.9086624783495556  7.0781383328022844 -1.1045901561124620
  2.9086624783495556 -7.0781383328022844 -1.1045901561124625
 -2.9086624783495556 -7.0781383328022844 -1.1045901561124627
  2.9086624783495556  7.0781383328022844 -1.1045901561124616
  2.9086624783495556 -7.0781383328022844  1.1045901561124620
 -2.9086624783495556  7.0781383328022844  1.1045901561124625
  5.5586682698352252 10.9696159500019998  1.1045901561124631
 -0.2586566868638860 -3.1866607156025681  1.1045901561124620
 -0.2586566868638860 10.9696159500019981 -1.1045901561124616
  5.5586682698352252 -3.1866607156025677 -1.1045901561124618
 -0.2586566868638860 -3.1866607156025681 -1.1045901561124625
  5.5586682698352252 10.9696159500019998 -1.1045901561124609
  5.5586682698352252 -3.1866607156025677  1.1045901561124623
 -0.2586566868638860 10.9696159500019981  1.1045901561124629
  2.6500057914856696  0.0000000000000002  3.2365546095945334
  0.0000000000000000  3.8914776171997163  3.2365546095945343
  1.3250028957428348  1.9457388085998579  1.2608006544745329
  3.9750086872285038  1.9457388085998581  5.2123085647145349
  3.9750086872285038  5.8372164257995749  5.2123085647145357
  1.3250028957428348  5.8372164257995749  1.2608006544745332
  3.9750086872285038  5.8372164257995749  1.2608006544745332
  1.3250028957428348  5.8372164257995749  5.2123085647145349
  1.3250028957428348  1.9457388085998579  5.2123085647145349
  3.9750086872285038  1.9457388085998581  1.2608006544745329
  1.3250028957428348  1.9457388085998579  4.5144425460838891
  3.9750086872285038  1.9457388085998581  1.9586666731051792
  3.9750086872285038  5.8372164257995749  1.9586666731051794
  1.3250028957428348  5.8372164257995749  4.5144425460838882
  3.9750086872285038  5.8372164257995749  4.5144425460838891
  1.3250028957428348  5.8372164257995749  1.9586666731051796
  1.3250028957428348  1.9457388085998579  1.9586666731051794
  3.9750086872285038  1.9457388085998581  4.5144425460838882
  1.3250028957428348  1.9457388085998579  4.1425409596121687
  3.9750086872285038  1.9457388085998581  2.3305682595768999
  3.9750086872285038  5.8372164257995749  2.3305682595768995
  1.3250028957428348  5.8372164257995749  4.1425409596121678
  3.9750086872285038  5.8372164257995749  4.1425409596121687
  1.3250028957428348  5.8372164257995749  2.3305682595768995
  1.3250028957428348  1.9457388085998579  2.3305682595768991
  3.9750086872285038  1.9457388085998581  4.1425409596121687
  2.1160191466497689  2.2976363888179230  0.0000000000000003
  3.1839924363215704  5.4853188455815092  0.0000000000000005
  3.1839924363215704  2.2976363888179230  0.0000000000000003
  2.1160191466497689  5.4853188455815083  0.0000000000000005
  4.7660249381354385  6.1891140060176397  0.0000000000000007
  0.5339866448359007  1.5938412283817931  0.0000000000000001
  0.5339866448359007  6.1891140060176397  0.0000000000000004
  4.7660249381354385  1.5938412283817933  0.0000000000000004
