Ar  H 
 1.0000000000000000
     5.9554361810613150    0.0000000000000004    0.0000000000000004
     0.0000000000000000    8.4793231123236570    0.0000000000000005
     0.0000000000000000    0.0000000000000000    8.3750428705280022
 Ar  H  
  12  68
Cartesian
  2.9777180905306575  0.0000000000000002  0.0000000000000002
  0.0000000000000000  4.2396615561618285  0.0000000000000003
  2.9777180905306575  0.0000000000000002  4.1875214352640011
  0.0000000000000000  4.2396615561618285  4.1875214352640002
  1.4888590452653288  2.1198307780809138  0.0000000000000002
  4.4665771357959860  2.1198307780809147  0.0000000000000004
  4.4665771357959860  6.3594923342427432  0.0000000000000007
  1.4888590452653288  6.3594923342427432  0.0000000000000005
  1.4888590452653288  2.1198307780809138  4.1875214352640011
  4.4665771357959860  2.1198307780809147  4.1875214352640002
  4.4665771357959860  6.3594923342427432  4.1875214352640020
  1.4888590452653288  6.3594923342427432  4.1875214352640020
  1.5763357723792193  7.3444079967487550  6.2789706391438562
 -1.5763357723792193 -7.3444079967487550  6.2789706391438544
 -1.5763357723792193  7.3444079967487559 -6.2789706391438553
  1.5763357723792193 -7.3444079967487559 -6.2789706391438553
 -1.5763357723792193 -7.3444079967487550 -6.2789706391438562
  1.5763357723792193  7.3444079967487550 -6.2789706391438544
  1.5763357723792193 -7.3444079967487559  6.2789706391438553
 -1.5763357723792193  7.3444079967487559  6.2789706391438553
  4.5540538629098775 11.5840695529105844  6.2789706391438562
  1.4013823181514384 -3.1047464405869274  6.2789706391438553
  1.4013823181514384 11.5840695529105844 -6.2789706391438544
  4.5540538629098775 -3.1047464405869265 -6.2789706391438553
  1.4013823181514384 -3.1047464405869274 -6.2789706391438553
  4.5540538629098775 11.5840695529105844 -6.2789706391438544
  4.5540538629098775 -3.1047464405869265  6.2789706391438553
  1.4013823181514384 11.5840695529105844  6.2789706391438562
  2.1945958598220874  0.8824631221465797  0.3966526903416708
  3.7608403212392281  7.5968599901770775  0.3966526903416714
  3.7608403212392281  0.8824631221465800  7.9783901801863317
  2.1945958598220874  7.5968599901770775  7.9783901801863326
  3.7608403212392281  7.5968599901770775  7.9783901801863326
  2.1945958598220874  0.8824631221465797  7.9783901801863317
  2.1945958598220874  7.5968599901770775  0.3966526903416713
  3.7608403212392281  0.8824631221465800  0.3966526903416709
  5.1723139503527440  5.1221246783084080  0.3966526903416713
  0.7831222307085706  3.3571984340152485  0.3966526903416709
  0.7831222307085706  5.1221246783084071  7.9783901801863317
  5.1723139503527440  3.3571984340152485  7.9783901801863326
  0.7831222307085706  3.3571984340152485  7.9783901801863317
  5.1723139503527440  5.1221246783084080  7.9783901801863326
  5.1723139503527440  3.3571984340152485  0.3966526903416712
  0.7831222307085706  5.1221246783084071  0.3966526903416711
  2.2374892326957805  3.8578145179439440  6.4436270837697176
  3.7179469483655350  4.6215085943797130  6.4436270837697185
  3.7179469483655350  3.8578145179439445  1.9314157867582848
  2.2374892326957805  4.6215085943797130  1.9314157867582848
  3.7179469483655350  4.6215085943797130  1.9314157867582848
  2.2374892326957805  3.8578145179439440  1.9314157867582848
  2.2374892326957805  4.6215085943797130  6.4436270837697176
  3.7179469483655350  3.8578145179439445  6.4436270837697185
  5.2152073232264380  8.0974760741057725  6.4436270837697185
  0.7402288578348770  0.3818470382178841  6.4436270837697176
  0.7402288578348770  8.0974760741057725  1.9314157867582848
  5.2152073232264380  0.3818470382178843  1.9314157867582848
  0.7402288578348770  0.3818470382178841  1.9314157867582844
  5.2152073232264380  8.0974760741057725  1.9314157867582853
  5.2152073232264380  0.3818470382178843  6.4436270837697176
  0.7402288578348770  8.0974760741057725  6.4436270837697185
  5.1659045087663511  0.0000000000000003  0.0000000000000003
  0.7895316722949638  0.0000000000000000  0.0000000000000000
  2.1881864182356936  4.2396615561618276  0.0000000000000004
  3.7672497628256219  4.2396615561618276  0.0000000000000005
  0.6970211398734972  0.0000000000000000  3.8240671275493305
  5.2584150411878188  0.0000000000000003  3.8240671275493310
  5.2584150411878188  0.0000000000000003  4.5509757429786717
  0.6970211398734972  0.0000000000000000  4.5509757429786717
  3.6747392304041546  4.2396615561618276  3.8240671275493310
  2.2806969506571604  4.2396615561618276  3.8240671275493310
  2.2806969506571604  4.2396615561618276  4.5509757429786717
  3.6747392304041546  4.2396615561618276  4.5509757429786726
  1.8433216479967911  0.0000000000000001  7.7563177719769518
  4.1121145330645241  0.0000000000000003  7.7563177719769518
  4.1121145330645241  0.0000000000000003  0.6187250985510510
  1.8433216479967911  0.0000000000000001  0.6187250985510508
  4.8210397385274497  4.2396615561618276  7.7563177719769527
  1.1343964425338664  4.2396615561618276  7.7563177719769518
  1.1343964425338664  4.2396615561618276  0.6187250985510511
  4.8210397385274497  4.2396615561618276  0.6187250985510513
