Ar  H 
 1.0000000000000000
     8.8436844500622396    0.0000000000000005    0.0000000000000005
     0.0000000000000000    8.6505549565153572    0.0000000000000005
     0.0000000000000000    0.0000000000000000   10.6887361021759286
 Ar  H  
  10  82
Cartesian
  4.4218422250311198  0.0000000000000003  0.0000000000000003
  0.0000000000000000  4.3252774782576786  0.0000000000000003
  2.2109211125155599  2.1626387391288389  0.0000000000000003
  6.6327633375466792  2.1626387391288397  0.0000000000000005
  6.6327633375466792  6.4879162173865179  0.0000000000000008
  2.2109211125155599  6.4879162173865179  0.0000000000000005
  2.2109211125155599  2.1626387391288389  5.3443680510879634
  6.6327633375466792  2.1626387391288397  5.3443680510879652
  6.6327633375466792  6.4879162173865179  5.3443680510879652
  2.2109211125155599  6.4879162173865179  5.3443680510879652
  1.5199907959106187  2.4619148983749271  1.3577230155350126
 -1.5199907959106187 -2.4619148983749271  1.3577230155350122
 -1.5199907959106187  2.4619148983749271 -1.3577230155350124
  1.5199907959106187 -2.4619148983749271 -1.3577230155350124
 -1.5199907959106187 -2.4619148983749271 -1.3577230155350126
  1.5199907959106187  2.4619148983749271 -1.3577230155350122
  1.5199907959106187 -2.4619148983749271  1.3577230155350124
 -1.5199907959106187  2.4619148983749271  1.3577230155350124
  5.9418330209417389  6.7871923766326061  1.3577230155350133
  2.9018514291205011  1.8633625798827518  1.3577230155350126
  2.9018514291205011  6.7871923766326061 -1.3577230155350117
  5.9418330209417389  1.8633625798827520 -1.3577230155350120
  2.9018514291205011  1.8633625798827518 -1.3577230155350122
  5.9418330209417389  6.7871923766326061 -1.3577230155350115
  5.9418330209417389  1.8633625798827520  1.3577230155350128
  2.9018514291205011  6.7871923766326061  1.3577230155350131
  0.9017570549639370  6.3834059545325488  1.0415145532691479
  7.9419273950983023  2.2671490019828093  1.0415145532691481
  7.9419273950983023  6.3834059545325497  9.6472215489067796
  0.9017570549639370  2.2671490019828089  9.6472215489067814
  7.9419273950983023  2.2671490019828093  9.6472215489067796
  0.9017570549639370  6.3834059545325488  9.6472215489067814
  0.9017570549639370  2.2671490019828089  1.0415145532691477
  7.9419273950983023  6.3834059545325497  1.0415145532691483
  5.3235992799950571  2.0581284762748702  1.0415145532691479
  3.5200851700671829  6.5924264802404871  1.0415145532691481
  3.5200851700671829  2.0581284762748702  9.6472215489067814
  5.3235992799950571  6.5924264802404871  9.6472215489067796
  3.5200851700671829  6.5924264802404871  9.6472215489067796
  5.3235992799950571  2.0581284762748702  9.6472215489067814
  5.3235992799950571  6.5924264802404871  1.0415145532691481
  3.5200851700671829  2.0581284762748702  1.0415145532691477
  5.4439851013806679  2.1031145997945342  6.3282470583325949
  3.3996993486815721  6.5474403567208235  6.3282470583325949
  3.3996993486815721  2.1031145997945342  4.3604890438433337
  5.4439851013806679  6.5474403567208235  4.3604890438433355
  3.3996993486815721  6.5474403567208235  4.3604890438433355
  5.4439851013806679  2.1031145997945342  4.3604890438433364
  5.4439851013806679  6.5474403567208235  6.3282470583325949
  3.3996993486815721  2.1031145997945342  6.3282470583325940
  1.0221428763495477  6.4283920780522124  6.3282470583325949
  7.8215415737126914  2.2221628784631453  6.3282470583325949
  7.8215415737126914  6.4283920780522132  4.3604890438433355
  1.0221428763495477  2.2221628784631449  4.3604890438433337
  7.8215415737126914  2.2221628784631453  4.3604890438433355
  1.0221428763495477  6.4283920780522124  4.3604890438433364
  1.0221428763495477  2.2221628784631449  6.3282470583325940
  7.8215415737126914  6.4283920780522132  6.3282470583325949
  5.0057917981118072  7.7875932020442882  8.6659794298367760
  3.8378926519504324  0.8629617544710690  8.6659794298367778
  3.8378926519504324  7.7875932020442882  2.0227566723391517
  5.0057917981118072  0.8629617544710692  2.0227566723391512
  3.8378926519504324  0.8629617544710690  2.0227566723391512
  5.0057917981118072  7.7875932020442882  2.0227566723391517
  5.0057917981118072  0.8629617544710692  8.6659794298367778
  3.8378926519504324  7.7875932020442882  8.6659794298367760
  0.5839495730806873  3.4623157237866096  8.6659794298367778
  8.2597348769815522  5.1882392327287485  8.6659794298367760
  8.2597348769815522  3.4623157237866100  2.0227566723391517
  0.5839495730806873  5.1882392327287477  2.0227566723391512
  8.2597348769815522  5.1882392327287485  2.0227566723391517
  0.5839495730806873  3.4623157237866096  2.0227566723391512
  0.5839495730806873  5.1882392327287477  8.6659794298367778
  8.2597348769815522  3.4623157237866100  8.6659794298367760
  4.8672549977995736  0.7491795921643650  8.3601540356470725
  3.9764294522626655  7.9013753643509927  8.3601540356470725
  3.9764294522626655  0.7491795921643649  2.3285820665288561
  4.8672549977995736  7.9013753643509927  2.3285820665288566
  3.9764294522626655  7.9013753643509927  2.3285820665288566
  4.8672549977995736  0.7491795921643650  2.3285820665288561
  4.8672549977995736  7.9013753643509927  8.3601540356470725
  3.9764294522626655  0.7491795921643649  8.3601540356470725
  0.4454127727684541  5.0744570704220431  8.3601540356470725
  8.3982716772937849  3.5760978860933146  8.3601540356470725
  8.3982716772937849  5.0744570704220440  2.3285820665288566
  0.4454127727684541  3.5760978860933141  2.3285820665288561
  8.3982716772937849  3.5760978860933146  2.3285820665288566
  0.4454127727684541  5.0744570704220431  2.3285820665288561
  0.4454127727684541  3.5760978860933141  8.3601540356470725
  8.3982716772937849  5.0744570704220440  8.3601540356470725
  0.0000000000000000  0.0000000000000000  0.0000000000000000
  4.4218422250311198  4.3252774782576777  0.0000000000000005
