Ar  H 
 1.0000000000000000
     7.0448607032777106    0.0000000000000004    0.0000000000000004
     0.0000000000000000    8.5040107959005447    0.0000000000000005
     0.0000000000000000    0.0000000000000000    3.7141665634759802
 Ar  H  
   4  72
Cartesian
  1.7612151758194277  2.1260026989751357  1.8570832817379901
  5.2836455274582832  2.1260026989751366  1.8570832817379903
  5.2836455274582832  6.3780080969254076  1.8570832817379905
  1.7612151758194277  6.3780080969254085  1.8570832817379903
  1.3786545602506439  1.6296597575248550  2.6111116767021070
 -1.3786545602506439 -1.6296597575248550  2.6111116767021070
 -1.3786545602506439  1.6296597575248550 -2.6111116767021070
  1.3786545602506439 -1.6296597575248550 -2.6111116767021070
 -1.3786545602506439 -1.6296597575248550 -2.6111116767021070
  1.3786545602506439  1.6296597575248550 -2.6111116767021070
  1.3786545602506439 -1.6296597575248550  2.6111116767021070
 -1.3786545602506439  1.6296597575248550  2.6111116767021070
  4.9010849118894999  5.8816651554751269  2.6111116767021074
  2.1437757913882112  2.6223456404254168  2.6111116767021074
  2.1437757913882112  5.8816651554751269 -2.6111116767021065
  4.9010849118894999  2.6223456404254177 -2.6111116767021065
  2.1437757913882112  2.6223456404254168 -2.6111116767021065
  4.9010849118894999  5.8816651554751269 -2.6111116767021065
  4.9010849118894999  2.6223456404254177  2.6111116767021074
  2.1437757913882112  5.8816651554751269  2.6111116767021074
  0.5279986072016583  6.3898383200209494  3.5252456858196735
  6.5168620960760526  2.1141724758795952  3.5252456858196735
  6.5168620960760526  6.3898383200209494  0.1889208776563077
  0.5279986072016583  2.1141724758795948  0.1889208776563071
  6.5168620960760526  2.1141724758795952  0.1889208776563075
  0.5279986072016583  6.3898383200209494  0.1889208776563073
  0.5279986072016583  2.1141724758795948  3.5252456858196730
  6.5168620960760526  6.3898383200209494  3.5252456858196739
  4.0504289588405138  2.1378329220706780  3.5252456858196735
  2.9944317444371964  6.3661778738298676  3.5252456858196735
  2.9944317444371964  2.1378329220706775  0.1889208776563072
  4.0504289588405138  6.3661778738298676  0.1889208776563076
  2.9944317444371964  6.3661778738298676  0.1889208776563075
  4.0504289588405138  2.1378329220706780  0.1889208776563073
  4.0504289588405138  6.3661778738298676  3.5252456858196735
  2.9944317444371964  2.1378329220706775  3.5252456858196735
  1.1850348460925835  0.3309930600918766  3.0724098082527931
  5.8598258571851272  8.1730177358086689  3.0724098082527935
  5.8598258571851272  0.3309930600918769  0.6417567552231875
  1.1850348460925835  8.1730177358086689  0.6417567552231878
  5.8598258571851272  8.1730177358086689  0.6417567552231882
  1.1850348460925835  0.3309930600918766  0.6417567552231874
  1.1850348460925835  8.1730177358086689  3.0724098082527931
  5.8598258571851272  0.3309930600918769  3.0724098082527931
  4.7074651977314383  4.5829984580421490  3.0724098082527931
  2.3373955055462718  3.9210123378583956  3.0724098082527931
  2.3373955055462718  4.5829984580421490  0.6417567552231878
  4.7074651977314383  3.9210123378583961  0.6417567552231879
  2.3373955055462718  3.9210123378583956  0.6417567552231875
  4.7074651977314383  4.5829984580421490  0.6417567552231878
  4.7074651977314383  3.9210123378583961  3.0724098082527935
  2.3373955055462718  4.5829984580421490  3.0724098082527935
  6.2176071230114545  7.1179074763816805  1.8570832817379908
  0.8272535802662561  1.3861033195188646  1.8570832817379903
  0.8272535802662561  7.1179074763816805  1.8570832817379903
  6.2176071230114545  1.3861033195188650  1.8570832817379903
  2.6951767713725991  2.8659020784314073  1.8570832817379905
  4.3496839319051119  5.6381087174691364  1.8570832817379905
  4.3496839319051119  2.8659020784314082  1.8570832817379903
  2.6951767713725991  5.6381087174691364  1.8570832817379903
  0.9234963302572752  7.6496150798095588  1.8570832817379903
  6.1213643730204357  0.8543957160909849  1.8570832817379903
  6.1213643730204357  7.6496150798095597  1.8570832817379908
  0.9234963302572752  0.8543957160909847  1.8570832817379899
  4.4459266818961307  3.3976096818592878  1.8570832817379903
  2.5989340213815804  5.1064011140412573  1.8570832817379903
  2.5989340213815804  3.3976096818592878  1.8570832817379903
  4.4459266818961307  5.1064011140412573  1.8570832817379908
  6.1593417589634925  2.2083014176816160  1.8570832817379903
  0.8855189443142182  6.2957093782189295  1.8570832817379903
  0.8855189443142182  2.2083014176816156  1.8570832817379901
  6.1593417589634925  6.2957093782189295  1.8570832817379905
  2.6369114073246371  6.4603068156318875  1.8570832817379908
  4.4079492959530731  2.0437039802686572  1.8570832817379903
  4.4079492959530731  6.4603068156318875  1.8570832817379905
  2.6369114073246371  2.0437039802686567  1.8570832817379901
