Ar  H 
 1.0000000000000000
    13.0449273186902595    0.0000000000000008    0.0000000000000008
     0.0000000000000000    8.7369782213802356    0.0000000000000005
     0.0000000000000000    0.0000000000000000    6.5696915924005861
 Ar  H  
   4  48
Cartesian
  6.5224636593451297  0.0000000000000004  3.2848457962002935
  0.0000000000000000  4.3684891106901178  3.2848457962002935
  0.0000000000000000  0.0000000000000000  3.2848457962002930
  6.5224636593451297  4.3684891106901169  3.2848457962002948
  0.4501848490810608  1.5895878347060959  0.9996177149252456
 -0.4501848490810608 -1.5895878347060959  0.9996177149252454
 -0.4501848490810608  1.5895878347060959 -0.9996177149252454
  0.4501848490810608 -1.5895878347060959 -0.9996177149252456
 -0.4501848490810608 -1.5895878347060959 -0.9996177149252456
  0.4501848490810608  1.5895878347060959 -0.9996177149252454
  0.4501848490810608 -1.5895878347060959  0.9996177149252454
 -0.4501848490810608  1.5895878347060959  0.9996177149252456
  6.9726485084261904  5.9580769453962139  0.9996177149252463
  6.0722788102640690  2.7789012759840217  0.9996177149252461
  6.0722788102640690  5.9580769453962139 -0.9996177149252448
  6.9726485084261904  2.7789012759840226 -0.9996177149252450
  6.0722788102640690  2.7789012759840217 -0.9996177149252450
  6.9726485084261904  5.9580769453962139 -0.9996177149252448
  6.9726485084261904  2.7789012759840226  0.9996177149252461
  6.0722788102640690  5.9580769453962139  0.9996177149252463
  4.0067604533622498  0.0000000000000002  0.0000000000000002
  9.0381668653280105  0.0000000000000006  0.0000000000000006
 10.5292241127073787  4.3684891106901187  0.0000000000000009
  2.5157032059828799  4.3684891106901169  0.0000000000000004
  0.0000000000000000  8.4626995698237035  0.0000000000000005
  0.0000000000000000  0.2742786515565325  0.0000000000000000
  6.5224636593451297  4.0942104591335857  0.0000000000000007
  6.5224636593451297  4.6427677622466499  0.0000000000000007
  3.2612318296725649  2.1842445553450585  4.1941003717970169
  9.7836954890176955  2.1842445553450589  2.3755912206035701
  9.7836954890176955  6.5527336660351780  2.3755912206035705
  3.2612318296725649  6.5527336660351772  4.1941003717970187
  9.7836954890176955  6.5527336660351780  4.1941003717970178
  3.2612318296725649  6.5527336660351772  2.3755912206035701
  3.2612318296725649  2.1842445553450585  2.3755912206035696
  9.7836954890176955  2.1842445553450589  4.1941003717970187
  3.2612318296725649  2.1842445553450585  1.0309359718568134
  9.7836954890176955  2.1842445553450589  5.5387556205437738
  9.7836954890176955  6.5527336660351780  5.5387556205437738
  3.2612318296725649  6.5527336660351772  1.0309359718568138
  9.7836954890176955  6.5527336660351780  1.0309359718568141
  3.2612318296725649  6.5527336660351772  5.5387556205437738
  3.2612318296725649  2.1842445553450585  5.5387556205437738
  9.7836954890176955  2.1842445553450589  1.0309359718568136
  1.3190858928252469  0.0000000000000001  0.6862990434192322
 11.7258414258650117  0.0000000000000007  0.6862990434192328
 11.7258414258650117  0.0000000000000007  5.8833925489813561
  1.3190858928252469  0.0000000000000001  5.8833925489813552
  7.8415495521703766  4.3684891106901187  0.6862990434192329
  5.2033777665198828  4.3684891106901169  0.6862990434192325
  5.2033777665198828  4.3684891106901169  5.8833925489813552
  7.8415495521703766  4.3684891106901187  5.8833925489813561
