Ar  H 
 1.0000000000000000
     8.5832822471410974    0.0000000000000005    0.0000000000000005
     0.0000000000000000   12.6982170293880614    0.0000000000000008
     0.0000000000000000    0.0000000000000000    7.6045781660299019
 Ar  H  
   2  96
Cartesian
  0.0000000000000000  0.0000000000000000  3.8022890830149509
  4.2916411235705487  6.3491085146940307  3.8022890830149514
  6.9012875742300404  8.2718526012644276  4.0434379389872950
 -6.9012875742300404 -8.2718526012644276  4.0434379389872932
 -6.9012875742300404  8.2718526012644293 -4.0434379389872950
  6.9012875742300404 -8.2718526012644293 -4.0434379389872941
 -6.9012875742300404 -8.2718526012644276 -4.0434379389872950
  6.9012875742300404  8.2718526012644276 -4.0434379389872932
  6.9012875742300404 -8.2718526012644293  4.0434379389872950
 -6.9012875742300404  8.2718526012644293  4.0434379389872941
 11.1929286978005873 14.6209611159584583  4.0434379389872959
 -2.6096464506594903 -1.9227440865703969  4.0434379389872941
 -2.6096464506594903 14.6209611159584583 -4.0434379389872932
 11.1929286978005873 -1.9227440865703960 -4.0434379389872932
 -2.6096464506594903 -1.9227440865703969 -4.0434379389872941
 11.1929286978005873 14.6209611159584583 -4.0434379389872923
 11.1929286978005873 -1.9227440865703960  4.0434379389872950
 -2.6096464506594903 14.6209611159584583  4.0434379389872950
  4.0906740971462776 10.4795945049330381  2.4751982584532621
  4.4926081499948198  2.2186225244550246  2.4751982584532617
  4.4926081499948198 10.4795945049330381  5.1293799075766415
  4.0906740971462776  2.2186225244550246  5.1293799075766406
  4.4926081499948198  2.2186225244550246  5.1293799075766406
  4.0906740971462776 10.4795945049330381  5.1293799075766415
  4.0906740971462776  2.2186225244550246  2.4751982584532617
  4.4926081499948198 10.4795945049330381  2.4751982584532621
  8.3823152207168263  4.1304859902390083  2.4751982584532621
  0.2009670264242713  8.5677310391490540  2.4751982584532617
  0.2009670264242713  4.1304859902390065  5.1293799075766406
  8.3823152207168263  8.5677310391490558  5.1293799075766415
  0.2009670264242713  8.5677310391490540  5.1293799075766415
  8.3823152207168263  4.1304859902390083  5.1293799075766415
  8.3823152207168263  8.5677310391490558  2.4751982584532626
  0.2009670264242713  4.1304859902390065  2.4751982584532617
  4.6925096854302790 11.0920078971948968  6.0987577239662594
  3.8907725617108189  1.6062091321931646  6.0987577239662576
  3.8907725617108189 11.0920078971948968  1.5058204420636447
  4.6925096854302790  1.6062091321931646  1.5058204420636443
  3.8907725617108189  1.6062091321931646  1.5058204420636443
  4.6925096854302790 11.0920078971948968  1.5058204420636447
  4.6925096854302790  1.6062091321931646  6.0987577239662576
  3.8907725617108189 11.0920078971948968  6.0987577239662585
  0.4008685618597305  4.7428993825008661  6.0987577239662576
  8.1824136852813663  7.9553176468871962  6.0987577239662594
  8.1824136852813663  4.7428993825008678  1.5058204420636447
  0.4008685618597305  7.9553176468871962  1.5058204420636443
  8.1824136852813663  7.9553176468871962  1.5058204420636447
  0.4008685618597305  4.7428993825008661  1.5058204420636441
  0.4008685618597305  7.9553176468871962  6.0987577239662585
  8.1824136852813663  4.7428993825008678  6.0987577239662585
  3.2769957621257113  7.1465088016653340  4.3547335084776124
  5.3062864850153861  5.5517082277227274  4.3547335084776124
  5.3062864850153861  7.1465088016653340  3.2498446575522921
  3.2769957621257113  5.5517082277227274  3.2498446575522912
  5.3062864850153861  5.5517082277227274  3.2498446575522912
  3.2769957621257113  7.1465088016653340  3.2498446575522912
  3.2769957621257113  5.5517082277227274  4.3547335084776124
  5.3062864850153861  7.1465088016653340  4.3547335084776124
  7.5686368856962600  0.7974002869713037  4.3547335084776124
  1.0146453614448372 11.9008167424167599  4.3547335084776124
  1.0146453614448372  0.7974002869713034  3.2498446575522908
  7.5686368856962600 11.9008167424167581  3.2498446575522926
  1.0146453614448372 11.9008167424167599  3.2498446575522921
  7.5686368856962600  0.7974002869713037  3.2498446575522912
  7.5686368856962600 11.9008167424167581  4.3547335084776124
  1.0146453614448372  0.7974002869713034  4.3547335084776115
  5.4507693618100106 11.5671858689952582  3.1956120221219915
  3.1325128853310882  1.1310311603928034  3.1956120221219910
  3.1325128853310882 11.5671858689952582  4.4089661439079117
  5.4507693618100106  1.1310311603928034  4.4089661439079109
  3.1325128853310882  1.1310311603928034  4.4089661439079117
  5.4507693618100106 11.5671858689952582  4.4089661439079117
  5.4507693618100106  1.1310311603928034  3.1956120221219910
  3.1325128853310882 11.5671858689952582  3.1956120221219915
  1.1591282382394605  5.2180773543012275  3.1956120221219910
  7.4241540089016365  7.4801396750868347  3.1956120221219915
  7.4241540089016365  5.2180773543012293  4.4089661439079117
  1.1591282382394605  7.4801396750868347  4.4089661439079117
  7.4241540089016365  7.4801396750868347  4.4089661439079117
  1.1591282382394605  5.2180773543012275  4.4089661439079109
  1.1591282382394605  7.4801396750868347  3.1956120221219915
  7.4241540089016365  5.2180773543012293  3.1956120221219915
  0.5428500750206937  1.4058181052704084  3.9708766068838899
  8.0404321721204042 11.2923989241176539  3.9708766068838912
  8.0404321721204042  1.4058181052704088  3.6337015591460129
  0.5428500750206937 11.2923989241176539  3.6337015591460129
  8.0404321721204042 11.2923989241176539  3.6337015591460133
  0.5428500750206937  1.4058181052704084  3.6337015591460124
  0.5428500750206937 11.2923989241176539  3.9708766068838908
  8.0404321721204042  1.4058181052704088  3.9708766068838903
  4.8344911985912420  7.7549266199644391  3.9708766068838908
  3.7487910485498550  4.9432904094236223  3.9708766068838903
  3.7487910485498550  7.7549266199644391  3.6337015591460129
  4.8344911985912420  4.9432904094236223  3.6337015591460124
  3.7487910485498550  4.9432904094236223  3.6337015591460129
  4.8344911985912420  7.7549266199644391  3.6337015591460129
  4.8344911985912420  4.9432904094236223  3.9708766068838903
  3.7487910485498550  7.7549266199644391  3.9708766068838908
