Ar  H 
 1.0000000000000000
    10.7078907500205389    0.0000000000000007    0.0000000000000007
     0.0000000000000000    5.0512518652160772    0.0000000000000003
     0.0000000000000000    0.0000000000000000    7.6467914257824843
 Ar  H  
   6  24
Cartesian
  0.0000000000000000  0.0000000000000000  0.0000000000000000
  5.3539453750102695  2.5256259326080390  0.0000000000000005
  2.6769726875051347  1.2628129663040195  3.8233957128912426
  8.0309180625154042  1.2628129663040195  3.8233957128912421
  8.0309180625154042  3.7884388989120583  3.8233957128912430
  2.6769726875051347  3.7884388989120574  3.8233957128912426
  5.3539453750102695  0.0000000000000003  3.8233957128912426
  0.0000000000000000  2.5256259326080386  3.8233957128912417
  0.0000000000000000  0.0000000000000000  3.8233957128912421
  5.3539453750102695  2.5256259326080390  3.8233957128912421
  4.1298647182860133  0.0000000000000003  0.0000000000000003
  6.5780260317345256  0.0000000000000004  0.0000000000000004
  9.4838100932962828  2.5256259326080386  0.0000000000000007
  1.2240806567242561  2.5256259326080381  0.0000000000000002
  0.0000000000000000  1.8817750326513800  0.0000000000000001
  0.0000000000000000  3.1694768325646971  0.0000000000000002
  5.3539453750102695  4.4074009652594182  0.0000000000000006
  5.3539453750102695  0.6438508999566589  0.0000000000000004
  0.0000000000000000  3.9626081396744763  3.8233957128912426
  0.0000000000000000  1.0886437255416002  3.8233957128912417
  5.3539453750102695  1.4369822070664386  3.8233957128912426
  5.3539453750102695  3.6142696581496385  3.8233957128912421
  0.0000000000000000  4.4572646875230282  5.4567890524533933
  0.0000000000000000 -4.4572646875230282  5.4567890524533942
  0.0000000000000000  4.4572646875230282 -5.4567890524533942
  0.0000000000000000 -4.4572646875230282 -5.4567890524533933
  5.3539453750102695  6.9828906201310668  5.4567890524533951
  5.3539453750102695 -1.9316387549149892  5.4567890524533933
  5.3539453750102695  6.9828906201310668 -5.4567890524533924
  5.3539453750102695 -1.9316387549149892 -5.4567890524533942
