Ar  H 
 1.0000000000000000
    11.1885738778534378    0.0000000000000007    0.0000000000000007
     0.0000000000000000   12.3465867870567685    0.0000000000000008
     0.0000000000000000    0.0000000000000000    5.0109781002569145
 Ar  H  
  10  56
Cartesian
  0.0000000000000000  0.0000000000000000  0.0000000000000000
  5.5942869389267189  6.1732933935283834  0.0000000000000007
  5.5942869389267189  0.0000000000000003  0.0000000000000003
  0.0000000000000000  6.1732933935283842  0.0000000000000004
  0.0000000000000000  0.0000000000000000  2.5054890501284572
  5.5942869389267189  6.1732933935283834  2.5054890501284581
  2.7971434694633595  3.0866466967641917  0.0000000000000004
  8.3914304083900788  3.0866466967641926  0.0000000000000007
  8.3914304083900788  9.2599400902925773  0.0000000000000011
  2.7971434694633595  9.2599400902925773  0.0000000000000007
  9.0175823895558516  4.4688936109585926  4.2467680812408863
 -9.0175823895558516 -4.4688936109585926  4.2467680812408846
 -9.0175823895558516  4.4688936109585908 -4.2467680812408855
  9.0175823895558516 -4.4688936109585908 -4.2467680812408846
 -9.0175823895558516 -4.4688936109585926 -4.2467680812408863
  9.0175823895558516  4.4688936109585926 -4.2467680812408846
  9.0175823895558516 -4.4688936109585908  4.2467680812408855
 -9.0175823895558516  4.4688936109585908  4.2467680812408846
 14.6118693284825696 10.6421870044869777  4.2467680812408863
 -3.4232954506291318  1.7043997825697927  4.2467680812408855
 -3.4232954506291318 10.6421870044869760 -4.2467680812408846
 14.6118693284825696  1.7043997825697939 -4.2467680812408846
 -3.4232954506291318  1.7043997825697927 -4.2467680812408855
 14.6118693284825696 10.6421870044869777 -4.2467680812408837
 14.6118693284825696  1.7043997825697939  4.2467680812408863
 -3.4232954506291318 10.6421870044869760  4.2467680812408846
  3.0965527308420473  4.2882715281713306  4.5865904504551596
  8.0920211470113905  8.0583152588854379  4.5865904504551605
  8.0920211470113905  4.2882715281713324  0.4243876498017559
  3.0965527308420473  8.0583152588854379  0.4243876498017558
  8.0920211470113905  8.0583152588854379  0.4243876498017561
  3.0965527308420473  4.2882715281713306  0.4243876498017555
  3.0965527308420473  8.0583152588854379  4.5865904504551605
  8.0920211470113905  4.2882715281713324  4.5865904504551605
  8.6908396697687671 10.4615649216997149  4.5865904504551605
  2.4977342080846716  1.8850218653570538  4.5865904504551596
  2.4977342080846716 10.4615649216997149  0.4243876498017559
  8.6908396697687671  1.8850218653570541  0.4243876498017558
  2.4977342080846716  1.8850218653570538  0.4243876498017554
  8.6908396697687671 10.4615649216997149  0.4243876498017563
  8.6908396697687671  1.8850218653570541  4.5865904504551596
  2.4977342080846716 10.4615649216997149  4.5865904504551605
  0.0000000000000000  0.0000000000000000  1.0150744951964408
  0.0000000000000000  0.0000000000000000  3.9959036050604730
  5.5942869389267189  6.1732933935283834  1.0150744951964414
  5.5942869389267189  6.1732933935283834  3.9959036050604744
  0.0000000000000000  6.1732933935283842  4.1265871813583095
  0.0000000000000000  6.1732933935283842  0.8843909188986057
  5.5942869389267189  0.0000000000000003  4.1265871813583095
  5.5942869389267189  0.0000000000000003  0.8843909188986055
  2.7971434694633595  3.0866466967641917  1.6570592080246258
  8.3914304083900788  3.0866466967641926  3.3539188922322896
  8.3914304083900788  9.2599400902925773  3.3539188922322900
  2.7971434694633595  9.2599400902925773  1.6570592080246260
  8.3914304083900788  9.2599400902925773  1.6570592080246263
  2.7971434694633595  9.2599400902925773  3.3539188922322896
  2.7971434694633595  3.0866466967641917  3.3539188922322896
  8.3914304083900788  3.0866466967641926  1.6570592080246260
  0.0000000000000000  1.9845796228580717  1.2242965634249714
  0.0000000000000000 10.3620071641986975  1.2242965634249721
  0.0000000000000000  1.9845796228580717  3.7866815368319426
  0.0000000000000000 10.3620071641986975  3.7866815368319435
  5.5942869389267189  8.1578730163864570  1.2242965634249721
  5.5942869389267189  4.1887137706703124  1.2242965634249718
  5.5942869389267189  8.1578730163864570  3.7866815368319440
  5.5942869389267189  4.1887137706703124  3.7866815368319435
