Ar  H 
 1.0000000000000000
    13.5954723626172225    0.0000000000000008    0.0000000000000008
     0.0000000000000000    7.5212322144997668    0.0000000000000005
     0.0000000000000000    0.0000000000000000    8.1776921584533255
 Ar  H  
  12  70
Cartesian
  0.0000000000000000  0.0000000000000000  0.0000000000000000
  6.7977361813086112  3.7606161072498838  0.0000000000000006
  0.0000000000000000  0.0000000000000000  4.0888460792266628
  6.7977361813086112  3.7606161072498838  4.0888460792266637
  3.3988680906543056  1.8803080536249419  0.0000000000000003
 10.1966042719629169  1.8803080536249424  0.0000000000000007
 10.1966042719629169  5.6409241608748255  0.0000000000000010
  3.3988680906543056  5.6409241608748255  0.0000000000000006
  3.3988680906543056  1.8803080536249419  4.0888460792266628
 10.1966042719629169  1.8803080536249424  4.0888460792266637
 10.1966042719629169  5.6409241608748255  4.0888460792266637
  3.3988680906543056  5.6409241608748255  4.0888460792266645
  7.9418764290646831  7.1290451656796572  1.6220115285610812
 -7.9418764290646831 -7.1290451656796572  1.6220115285610794
 -7.9418764290646831  7.1290451656796545 -1.6220115285610803
  7.9418764290646831 -7.1290451656796545 -1.6220115285610803
 -7.9418764290646831 -7.1290451656796572 -1.6220115285610812
  7.9418764290646831  7.1290451656796572 -1.6220115285610794
  7.9418764290646831 -7.1290451656796545  1.6220115285610803
 -7.9418764290646831  7.1290451656796545  1.6220115285610803
 14.7396126103732943 10.8896612729295423  1.6220115285610819
 -1.1441402477560718 -3.3684290584297725  1.6220115285610801
 -1.1441402477560718 10.8896612729295406 -1.6220115285610797
 14.7396126103732943 -3.3684290584297716 -1.6220115285610797
 -1.1441402477560718 -3.3684290584297725 -1.6220115285610806
 14.7396126103732943 10.8896612729295423 -1.6220115285610788
 14.7396126103732943 -3.3684290584297716  1.6220115285610810
 -1.1441402477560718 10.8896612729295406  1.6220115285610810
  8.1947504906784374  6.9796206022212450  7.1445939476795939
  5.4007218719387851  0.5416116122785236  7.1445939476795921
  5.4007218719387851  6.9796206022212441  1.0330982107737343
  8.1947504906784374  0.5416116122785239  1.0330982107737341
  5.4007218719387851  0.5416116122785236  1.0330982107737341
  8.1947504906784374  6.9796206022212450  1.0330982107737345
  8.1947504906784374  0.5416116122785239  7.1445939476795930
  5.4007218719387851  6.9796206022212441  7.1445939476795939
  1.3970143093698264  3.2190044949713603  7.1445939476795921
 12.1984580532473963  4.3022277195284087  7.1445939476795930
 12.1984580532473963  3.2190044949713612  1.0330982107737348
  1.3970143093698264  4.3022277195284078  1.0330982107737341
 12.1984580532473963  4.3022277195284087  1.0330982107737348
  1.3970143093698264  3.2190044949713603  1.0330982107737341
  1.3970143093698264  4.3022277195284078  7.1445939476795921
 12.1984580532473963  3.2190044949713612  7.1445939476795939
  1.7424974390757950  4.2189297845994584  6.7021953452004368
 11.8529749235414279  3.3023024299003092  6.7021953452004386
 11.8529749235414279  4.2189297845994593  1.4754968132528901
  1.7424974390757950  3.3023024299003088  1.4754968132528894
 11.8529749235414279  3.3023024299003092  1.4754968132528901
  1.7424974390757950  4.2189297845994584  1.4754968132528896
  1.7424974390757950  3.3023024299003088  6.7021953452004368
 11.8529749235414279  4.2189297845994593  6.7021953452004386
  8.5402336203844040  0.4583136773495758  6.7021953452004377
  5.0552387422328158  7.0629185371501926  6.7021953452004377
  5.0552387422328158  0.4583136773495756  1.4754968132528896
  8.5402336203844040  7.0629185371501926  1.4754968132528901
  5.0552387422328158  7.0629185371501926  1.4754968132528898
  8.5402336203844040  0.4583136773495758  1.4754968132528896
  8.5402336203844040  7.0629185371501926  6.7021953452004386
  5.0552387422328158  0.4583136773495756  6.7021953452004368
  9.0082689393502182  6.5345445548890266  3.5507096880234692
  4.5872034232670016  0.9866876596107423  3.5507096880234679
  4.5872034232670016  6.5345445548890249  4.6269824704298586
  9.0082689393502182  0.9866876596107423  4.6269824704298586
  4.5872034232670016  0.9866876596107423  4.6269824704298586
  9.0082689393502182  6.5345445548890266  4.6269824704298586
  9.0082689393502182  0.9866876596107423  3.5507096880234679
  4.5872034232670016  6.5345445548890249  3.5507096880234683
  2.2105327580416092  2.7739284476391419  3.5507096880234679
 11.3849396045756137  4.7473037668606271  3.5507096880234692
 11.3849396045756137  2.7739284476391428  4.6269824704298586
  2.2105327580416092  4.7473037668606253  4.6269824704298577
 11.3849396045756137  4.7473037668606271  4.6269824704298586
  2.2105327580416092  2.7739284476391419  4.6269824704298586
  2.2105327580416092  4.7473037668606253  3.5507096880234679
 11.3849396045756137  2.7739284476391428  3.5507096880234683
  6.7977361813086112  0.0000000000000004  0.0000000000000004
  0.0000000000000000  3.7606161072498834  0.0000000000000002
  0.0000000000000000  6.1237715040943392  0.0000000000000004
  0.0000000000000000  1.3974607104054286  0.0000000000000001
  6.7977361813086112  2.3631553968444554  0.0000000000000006
  6.7977361813086112  5.1580768176553118  0.0000000000000007
