Ar  H 
 1.0000000000000000
     4.7662105404397712    0.0000000000000003    0.0000000000000003
     0.0000000000000000    3.7562697393672728    0.0000000000000002
     0.0000000000000000    0.0000000000000000    9.8813483917671032
 Ar  H  
   4  26
Cartesian
  0.0000000000000000  0.0000000000000000  0.0000000000000000
  2.3831052702198856  1.8781348696836371  0.0000000000000003
  2.3831052702198856  0.0000000000000001  4.9406741958835516
  0.0000000000000000  1.8781348696836364  4.9406741958835516
  2.3831052702198856  0.0000000000000001  0.0000000000000001
  0.0000000000000000  1.8781348696836364  0.0000000000000001
  0.0000000000000000  1.8781348696836364  2.0340349233422512
  0.0000000000000000  1.8781348696836364  7.8473134684248524
  2.3831052702198856  0.0000000000000001  2.0340349233422512
  2.3831052702198856  0.0000000000000001  7.8473134684248524
  0.0000000000000000  1.8781348696836364  8.8227560172023463
  0.0000000000000000  1.8781348696836364  1.0585923745647579
  2.3831052702198856  0.0000000000000001  8.8227560172023463
  2.3831052702198856  0.0000000000000001  1.0585923745647579
  0.0000000000000000  1.8781348696836364  7.0528178810446880
  0.0000000000000000  1.8781348696836364  2.8285305107224152
  2.3831052702198856  0.0000000000000001  7.0528178810446880
  2.3831052702198856  0.0000000000000001  2.8285305107224152
  0.0000000000000000  1.8781348696836364  3.8932203461447230
  0.0000000000000000  1.8781348696836364  5.9881280456223802
  2.3831052702198856  0.0000000000000001  3.8932203461447230
  2.3831052702198856  0.0000000000000001  5.9881280456223802
  1.7111268094478280  2.3264190238708715  4.9406741958835516
 -1.7111268094478280 -2.3264190238708715  4.9406741958835516
 -1.7111268094478280  2.3264190238708711  4.9406741958835516
  1.7111268094478280 -2.3264190238708711  4.9406741958835516
  4.0942320796677141  4.2045538935545075  4.9406741958835525
  0.6719784607720571 -0.4482841541872348  4.9406741958835516
  0.6719784607720571  4.2045538935545075  4.9406741958835507
  4.0942320796677141 -0.4482841541872346  4.9406741958835516
