Ar  H 
 1.0000000000000000
     6.2160056272358863    0.0000000000000004    0.0000000000000004
     0.0000000000000000    7.6614052645247792    0.0000000000000005
     0.0000000000000000    0.0000000000000000    6.0616700166108535
 Ar  H  
  10  36
Cartesian
  3.1080028136179432  0.0000000000000002  0.0000000000000002
  0.0000000000000000  3.8307026322623896  0.0000000000000002
  3.1080028136179432  0.0000000000000002  3.0308350083054263
  0.0000000000000000  3.8307026322623896  3.0308350083054272
  0.0000000000000000  0.0000000000000000  3.0308350083054263
  3.1080028136179432  3.8307026322623896  3.0308350083054267
  1.5540014068089716  1.9153513161311948  0.0000000000000002
  4.6620042204269145  1.9153513161311950  0.0000000000000004
  4.6620042204269145  5.7460539483935849  0.0000000000000006
  1.5540014068089716  5.7460539483935849  0.0000000000000004
  3.5584433887189659  0.3189151821307392  5.3716608762445510
 -3.5584433887189659 -0.3189151821307392  5.3716608762445519
 -3.5584433887189659  0.3189151821307387 -5.3716608762445510
  3.5584433887189659 -0.3189151821307387 -5.3716608762445519
 -3.5584433887189659 -0.3189151821307392 -5.3716608762445510
  3.5584433887189659  0.3189151821307392 -5.3716608762445519
  3.5584433887189659 -0.3189151821307387  5.3716608762445510
 -3.5584433887189659  0.3189151821307387  5.3716608762445519
  6.6664462023369095  4.1496178143931290  5.3716608762445528
 -0.4504405751010230  3.5117874501316511  5.3716608762445510
 -0.4504405751010230  4.1496178143931282 -5.3716608762445519
  6.6664462023369095  3.5117874501316515 -5.3716608762445501
 -0.4504405751010230  3.5117874501316511 -5.3716608762445519
  6.6664462023369095  4.1496178143931290 -5.3716608762445501
  6.6664462023369095  3.5117874501316515  5.3716608762445528
 -0.4504405751010230  4.1496178143931282  5.3716608762445510
  1.5540014068089716  1.9153513161311948  3.0308350083054263
  4.6620042204269145  1.9153513161311950  3.0308350083054267
  4.6620042204269145  5.7460539483935849  3.0308350083054267
  1.5540014068089716  5.7460539483935849  3.0308350083054267
  0.0000000000000000  0.6333482862603823  0.0000000000000000
  0.0000000000000000  7.0280569782643978  0.0000000000000004
  3.1080028136179432  4.4640509185227719  0.0000000000000005
  3.1080028136179432  3.1973543460020077  0.0000000000000004
  0.0000000000000000  4.7204433760712572  3.0308350083054272
  0.0000000000000000  2.9409618884535225  3.0308350083054263
  3.1080028136179432  0.8897407438088680  3.0308350083054272
  3.1080028136179432  6.7716645207159125  3.0308350083054267
  0.0000000000000000  0.0000000000000000  0.1556425051242738
  0.0000000000000000  0.0000000000000000  5.9060275114865801
  3.1080028136179432  3.8307026322623896  0.1556425051242742
  3.1080028136179432  3.8307026322623896  5.9060275114865792
  0.0000000000000000  3.8307026322623896  1.9962170249762536
  0.0000000000000000  3.8307026322623896  4.0654529916345989
  3.1080028136179432  0.0000000000000002  1.9962170249762539
  3.1080028136179432  0.0000000000000002  4.0654529916345989
