Ar  H 
 1.0000000000000000
    14.0321366252055331    0.0000000000000009    0.0000000000000009
     0.0000000000000000    3.1897869062978059    0.0000000000000002
     0.0000000000000000    0.0000000000000000    8.4693829040810957
 Ar  H  
  10  22
Cartesian
  7.0160683126027656  0.0000000000000004  0.0000000000000004
  0.0000000000000000  1.5948934531489030  0.0000000000000001
  3.5080341563013828  0.7974467265744517  0.0000000000000003
 10.5241024689041502  0.7974467265744521  0.0000000000000007
 10.5241024689041502  2.3923401797233552  0.0000000000000008
 17.5401707815069159  2.3923401797233557  0.0000000000000012
  3.5080341563013828  0.7974467265744517  4.2346914520405479
 10.5241024689041502  0.7974467265744521  4.2346914520405488
 10.5241024689041502  2.3923401797233552  4.2346914520405488
  3.5080341563013828  2.3923401797233548  4.2346914520405479
  0.0000000000000000  0.0000000000000000  0.0000000000000000
  7.0160683126027656  1.5948934531489034  0.0000000000000005
  2.7784212729897617  0.0000000000000002  0.0000000000000002
 11.2537153522157709  0.0000000000000007  0.0000000000000007
  9.7944895855925296  1.5948934531489036  0.0000000000000007
  4.2376470396130044  1.5948934531489032  0.0000000000000004
  5.7368359619428002  0.0000000000000004  4.2346914520405479
  8.2953006632627329  0.0000000000000005  4.2346914520405496
 12.7529042745455641  1.5948934531489039  4.2346914520405488
  1.2792323506599665  1.5948934531489030  4.2346914520405479
  5.1469489893405562  0.0000000000000003  4.2346914520405479
  8.8851876358649751  0.0000000000000005  4.2346914520405496
 12.1630173019433219  1.5948934531489036  4.2346914520405488
  1.8691193232622090  1.5948934531489032  4.2346914520405479
 10.3344571692410003  0.0000000000000006  4.2346914520405488
  3.6976794559645332  0.0000000000000002  4.2346914520405479
  3.3183888566382329  1.5948934531489032  4.2346914520405479
 10.7137477685673002  1.5948934531489036  4.2346914520405488
  0.0000000000000000  0.0000000000000000  6.4803007060743223
  0.0000000000000000  0.0000000000000000  1.9890821980067734
  7.0160683126027656  1.5948934531489034  6.4803007060743232
  7.0160683126027656  1.5948934531489034  1.9890821980067737
