Ar  H 
 1.0000000000000000
     4.5849472207913529    0.0000000000000003    0.0000000000000003
     0.0000000000000000    6.8492533396793798    0.0000000000000004
     0.0000000000000000    0.0000000000000000   10.2001926932295355
 Ar  H  
  12  80
Cartesian
  2.2924736103956764  0.0000000000000001  5.1000963466147677
  0.0000000000000000  3.4246266698396899  5.1000963466147677
  0.0000000000000000  0.0000000000000000  5.1000963466147677
  2.2924736103956764  3.4246266698396894  5.1000963466147677
  1.1462368051978382  1.7123133349198447  0.0000000000000002
  3.4387104155935146  1.7123133349198452  0.0000000000000003
  3.4387104155935146  5.1369400047595351  0.0000000000000005
  1.1462368051978382  5.1369400047595351  0.0000000000000004
  1.1462368051978382  1.7123133349198447  5.1000963466147677
  3.4387104155935146  1.7123133349198452  5.1000963466147677
  3.4387104155935146  5.1369400047595351  5.1000963466147686
  1.1462368051978382  5.1369400047595351  5.1000963466147677
  0.2175988212124355  2.4596034731189520  3.1988399331427972
 -0.2175988212124355 -2.4596034731189520  3.1988399331427972
 -0.2175988212124355  2.4596034731189520 -3.1988399331427972
  0.2175988212124355 -2.4596034731189520 -3.1988399331427972
 -0.2175988212124355 -2.4596034731189520 -3.1988399331427972
  0.2175988212124355  2.4596034731189520 -3.1988399331427972
  0.2175988212124355 -2.4596034731189520  3.1988399331427972
 -0.2175988212124355  2.4596034731189520  3.1988399331427972
  2.5100724316081120  5.8842301429586410  3.1988399331427977
  2.0748747891832409  0.9650231967207379  3.1988399331427972
  2.0748747891832409  5.8842301429586410 -3.1988399331427968
  2.5100724316081120  0.9650231967207379 -3.1988399331427972
  2.0748747891832409  0.9650231967207379 -3.1988399331427972
  2.5100724316081120  5.8842301429586410 -3.1988399331427968
  2.5100724316081120  0.9650231967207379  3.1988399331427972
  2.0748747891832409  5.8842301429586410  3.1988399331427977
  3.1006650597814507  6.3553896280615065  5.7833680354944139
  1.4842821610099022  0.4938637116178736  5.7833680354944130
  1.4842821610099022  6.3553896280615065  4.4168246577351233
  3.1006650597814507  0.4938637116178736  4.4168246577351225
  1.4842821610099022  0.4938637116178736  4.4168246577351225
  3.1006650597814507  6.3553896280615065  4.4168246577351233
  3.1006650597814507  0.4938637116178736  5.7833680354944130
  1.4842821610099022  6.3553896280615065  5.7833680354944139
  0.8081914493857743  2.9307629582218166  5.7833680354944130
  3.7767557714055786  3.9184903814575636  5.7833680354944139
  3.7767557714055786  2.9307629582218171  4.4168246577351225
  0.8081914493857743  3.9184903814575631  4.4168246577351225
  3.7767557714055786  3.9184903814575636  4.4168246577351233
  0.8081914493857743  2.9307629582218166  4.4168246577351225
  0.8081914493857743  3.9184903814575631  5.7833680354944130
  3.7767557714055786  2.9307629582218171  5.7833680354944130
  1.2049345933007662  0.3019597961015829  8.8468318479734975
  3.3800126274905864  6.5472935435777959  8.8468318479734993
  3.3800126274905864  0.3019597961015830  1.3533608452560375
  1.2049345933007662  6.5472935435777959  1.3533608452560377
  3.3800126274905864  6.5472935435777959  1.3533608452560379
  1.2049345933007662  0.3019597961015829  1.3533608452560373
  1.2049345933007662  6.5472935435777959  8.8468318479734993
  3.3800126274905864  0.3019597961015830  8.8468318479734993
  3.4974082036964429  3.7265864659412729  8.8468318479734993
  1.0875390170949100  3.1226668737381069  8.8468318479734993
  1.0875390170949100  3.7265864659412729  1.3533608452560375
  3.4974082036964429  3.1226668737381069  1.3533608452560377
  1.0875390170949100  3.1226668737381069  1.3533608452560375
  3.4974082036964429  3.7265864659412729  1.3533608452560377
  3.4974082036964429  3.1226668737381069  8.8468318479734993
  1.0875390170949100  3.7265864659412729  8.8468318479734993
  0.9554319728600639  6.4677380175918611  0.7845491466079113
  3.6295152479312889  0.3815153220875178  0.7845491466079111
  3.6295152479312889  6.4677380175918620  9.4156435466216255
  0.9554319728600639  0.3815153220875176  9.4156435466216255
  3.6295152479312889  0.3815153220875178  9.4156435466216255
  0.9554319728600639  6.4677380175918611  9.4156435466216255
  0.9554319728600639  0.3815153220875176  0.7845491466079110
  3.6295152479312889  6.4677380175918620  0.7845491466079115
  3.2479055832557404  3.0431113477521725  0.7845491466079112
  1.3370416375356124  3.8061419919272073  0.7845491466079112
  1.3370416375356124  3.0431113477521725  9.4156435466216255
  3.2479055832557404  3.8061419919272073  9.4156435466216255
  1.3370416375356124  3.8061419919272073  9.4156435466216255
  3.2479055832557404  3.0431113477521725  9.4156435466216255
  3.2479055832557404  3.8061419919272073  0.7845491466079113
  1.3370416375356124  3.0431113477521725  0.7845491466079111
  2.9081900973278545  0.0000000000000002  6.0490300390389775
  1.6767571234634984  0.0000000000000001  6.0490300390389775
  1.6767571234634984  0.0000000000000001  4.1511626541905580
  2.9081900973278545  0.0000000000000002  4.1511626541905580
  0.6157164869321782  3.4246266698396899  6.0490300390389775
  3.9692307338591748  3.4246266698396903  6.0490300390389784
  3.9692307338591748  3.4246266698396903  4.1511626541905589
  0.6157164869321782  3.4246266698396899  4.1511626541905580
  0.7168087024650799  3.1704650885470196  0.0000000000000002
  3.8681385183262731  3.6787882511323602  0.0000000000000005
  3.8681385183262731  3.1704650885470205  0.0000000000000004
  0.7168087024650799  3.6787882511323597  0.0000000000000003
  3.0092823128607562  6.5950917583867090  0.0000000000000006
  1.5756649079305967  0.2541615812926699  0.0000000000000001
  1.5756649079305967  6.5950917583867090  0.0000000000000005
  3.0092823128607562  0.2541615812926699  0.0000000000000002
