Ar  H 
 1.0000000000000000
     9.4335926076830301    0.0000000000000006    0.0000000000000006
     0.0000000000000000    6.4481265294637993    0.0000000000000004
     0.0000000000000000    0.0000000000000000   10.0478089946523461
 Ar  H  
   6  58
Cartesian
  4.7167963038415150  0.0000000000000003  5.0239044973261731
  0.0000000000000000  3.2240632647318996  5.0239044973261731
  2.3583981519207575  1.6120316323659500  0.0000000000000002
  7.0751944557622712  1.6120316323659503  0.0000000000000005
  7.0751944557622712  4.8360948970978495  0.0000000000000007
  2.3583981519207575  4.8360948970978495  0.0000000000000004
  8.3982404471701209  3.4468613704553976  6.5842058709251505
 -8.3982404471701209 -3.4468613704553976  6.5842058709251479
 -8.3982404471701209  3.4468613704553968 -6.5842058709251488
  8.3982404471701209 -3.4468613704553968 -6.5842058709251488
 -8.3982404471701209 -3.4468613704553976 -6.5842058709251505
  8.3982404471701209  3.4468613704553976 -6.5842058709251479
  8.3982404471701209 -3.4468613704553968  6.5842058709251488
 -8.3982404471701209  3.4468613704553968  6.5842058709251488
 13.1150367510116350  6.6709246351872977  6.5842058709251496
 -3.6814441433286049 -0.2227981057234977  6.5842058709251488
 -3.6814441433286049  6.6709246351872968 -6.5842058709251488
 13.1150367510116350 -0.2227981057234967 -6.5842058709251479
 -3.6814441433286049 -0.2227981057234977 -6.5842058709251488
 13.1150367510116350  6.6709246351872977 -6.5842058709251479
 13.1150367510116350 -0.2227981057234967  6.5842058709251496
 -3.6814441433286049  6.6709246351872968  6.5842058709251488
  2.5273361232489955  2.4535874128414434  0.5086252700276822
  6.9062564844340351  3.9945391166223572  0.5086252700276825
  6.9062564844340351  2.4535874128414434  9.5391837246246656
  2.5273361232489955  3.9945391166223563  9.5391837246246638
  6.9062564844340351  3.9945391166223572  9.5391837246246656
  2.5273361232489955  2.4535874128414434  9.5391837246246638
  2.5273361232489955  3.9945391166223563  0.5086252700276823
  6.9062564844340351  2.4535874128414434  0.5086252700276825
  7.2441324270905101  5.6776506775733431  0.5086252700276828
  2.1894601805925196  0.7704758518904565  0.5086252700276821
  2.1894601805925196  5.6776506775733440  9.5391837246246638
  7.2441324270905101  0.7704758518904569  9.5391837246246638
  2.1894601805925196  0.7704758518904565  9.5391837246246638
  7.2441324270905101  5.6776506775733431  9.5391837246246656
  7.2441324270905101  0.7704758518904569  0.5086252700276823
  2.1894601805925196  5.6776506775733440  0.5086252700276824
  0.0000000000000000  0.0000000000000000  5.0239044973261731
  4.7167963038415150  3.2240632647319001  5.0239044973261739
  2.3583981519207575  1.6120316323659500  1.0739999580408908
  7.0751944557622712  1.6120316323659503  8.9738090366114562
  7.0751944557622712  4.8360948970978495  8.9738090366114562
  2.3583981519207575  4.8360948970978495  1.0739999580408910
  7.0751944557622712  4.8360948970978495  1.0739999580408912
  2.3583981519207575  4.8360948970978495  8.9738090366114562
  2.3583981519207575  1.6120316323659500  8.9738090366114562
  7.0751944557622712  1.6120316323659503  1.0739999580408910
  2.6169069305289772  3.7692911737159229  0.0000000000000004
  6.8166856771540525  2.6788353557478772  0.0000000000000006
  6.8166856771540525  3.7692911737159234  0.0000000000000006
  2.6169069305289772  2.6788353557478763  0.0000000000000003
  7.3337032343704927  0.5452279089840238  0.0000000000000005
  2.0998893733125379  5.9028986204797755  0.0000000000000005
  2.0998893733125379  0.5452279089840235  0.0000000000000002
  7.3337032343704927  5.9028986204797773  0.0000000000000008
  6.7539592931040975  6.1486076252869113  0.0000000000000008
  2.6796333145789326  0.2995189041768890  0.0000000000000002
  2.6796333145789326  6.1486076252869104  0.0000000000000005
  6.7539592931040975  0.2995189041768893  0.0000000000000004
  2.0371629892625824  2.9245443605550108  0.0000000000000003
  7.3964296184204477  3.5235821689087889  0.0000000000000007
  7.3964296184204477  2.9245443605550112  0.0000000000000006
  2.0371629892625824  3.5235821689087885  0.0000000000000003
