Ar  H 
 1.0000000000000000
     4.0168195267320588    0.0000000000000002    0.0000000000000002
     0.0000000000000000    8.0630413849850875    0.0000000000000005
     0.0000000000000000    0.0000000000000000    3.6166379171677141
 Ar  H  
   2  76
Cartesian
  0.0000000000000000  0.0000000000000000  0.0000000000000000
  2.0084097633660294  4.0315206924925429  0.0000000000000004
  2.1877585735307115  6.0358326129956215  2.6824601164411348
 -2.1877585735307115 -6.0358326129956215  2.6824601164411339
 -2.1877585735307115  6.0358326129956206 -2.6824601164411339
  2.1877585735307115 -6.0358326129956206 -2.6824601164411348
 -2.1877585735307115 -6.0358326129956215 -2.6824601164411348
  2.1877585735307115  6.0358326129956215 -2.6824601164411339
  2.1877585735307115 -6.0358326129956206  2.6824601164411339
 -2.1877585735307115  6.0358326129956206  2.6824601164411348
  4.1961683368967400 10.0673533054881634  2.6824601164411352
 -0.1793488101646814 -2.0043119205030782  2.6824601164411344
 -0.1793488101646814 10.0673533054881652 -2.6824601164411339
  4.1961683368967400 -2.0043119205030773 -2.6824601164411344
 -0.1793488101646814 -2.0043119205030782 -2.6824601164411348
  4.1961683368967400 10.0673533054881634 -2.6824601164411335
  4.1961683368967400 -2.0043119205030773  2.6824601164411348
 -0.1793488101646814 10.0673533054881652  2.6824601164411352
  0.5167790674467700  2.9078374974294428  1.2804446051930756
  3.5000404592852887  5.1552038875556443  1.2804446051930758
  3.5000404592852887  2.9078374974294432  2.3361933119746392
  0.5167790674467700  5.1552038875556443  2.3361933119746396
  3.5000404592852887  5.1552038875556443  2.3361933119746392
  0.5167790674467700  2.9078374974294428  2.3361933119746388
  0.5167790674467700  5.1552038875556443  1.2804446051930758
  3.5000404592852887  2.9078374974294432  1.2804446051930758
  2.5251888308127994  6.9393581899219861  1.2804446051930760
  1.4916306959192593  1.1236831950631003  1.2804446051930756
  1.4916306959192593  6.9393581899219861  2.3361933119746392
  2.5251888308127994  1.1236831950631005  2.3361933119746392
  1.4916306959192593  1.1236831950631003  2.3361933119746388
  2.5251888308127994  6.9393581899219861  2.3361933119746392
  2.5251888308127994  1.1236831950631005  1.2804446051930756
  1.4916306959192593  6.9393581899219861  1.2804446051930758
  2.5892684874441709  7.0419661872727213  1.9763970136653910
  1.4275510392878885  1.0210751977123664  1.9763970136653906
  1.4275510392878885  7.0419661872727213  1.6402409035023244
  2.5892684874441709  1.0210751977123667  1.6402409035023240
  1.4275510392878885  1.0210751977123664  1.6402409035023240
  2.5892684874441709  7.0419661872727213  1.6402409035023244
  2.5892684874441709  1.0210751977123667  1.9763970136653906
  1.4275510392878885  7.0419661872727213  1.9763970136653908
  0.5808587240781409  3.0104454947801766  1.9763970136653906
  3.4359608026539177  5.0525958902049100  1.9763970136653908
  3.4359608026539177  3.0104454947801771  1.6402409035023242
  0.5808587240781409  5.0525958902049091  1.6402409035023242
  3.4359608026539177  5.0525958902049100  1.6402409035023244
  0.5808587240781409  3.0104454947801766  1.6402409035023240
  0.5808587240781409  5.0525958902049091  1.9763970136653908
  3.4359608026539177  3.0104454947801771  1.9763970136653908
  2.7285914973859415  5.9633361954885196  0.8802671621843583
  1.2882280293461170  2.0997051894965670  0.8802671621843580
  1.2882280293461170  5.9633361954885187  2.7363707549833567
  2.7285914973859415  2.0997051894965675  2.7363707549833567
  1.2882280293461170  2.0997051894965670  2.7363707549833562
  2.7285914973859415  5.9633361954885196  2.7363707549833567
  2.7285914973859415  2.0997051894965675  0.8802671621843582
  1.2882280293461170  5.9633361954885187  0.8802671621843582
  0.7201817340199124  1.9318155029959763  0.8802671621843579
  3.2966377927121471  6.1312258819891117  0.8802671621843583
  3.2966377927121471  1.9318155029959765  2.7363707549833567
  0.7201817340199124  6.1312258819891117  2.7363707549833567
  3.2966377927121471  6.1312258819891117  2.7363707549833571
  0.7201817340199124  1.9318155029959763  2.7363707549833562
  0.7201817340199124  6.1312258819891117  0.8802671621843582
  3.2966377927121471  1.9318155029959765  0.8802671621843581
  1.0042048816830147  2.0157603462462714  0.0000000000000002
  3.0126146450490441  2.0157603462462714  0.0000000000000003
  3.0126146450490441  6.0472810387388156  0.0000000000000006
  1.0042048816830147  6.0472810387388156  0.0000000000000004
  1.0042048816830147  2.0157603462462714  2.3814332759892860
  3.0126146450490441  2.0157603462462714  1.2352046411784285
  3.0126146450490441  6.0472810387388156  1.2352046411784288
  1.0042048816830147  6.0472810387388156  2.3814332759892864
  3.0126146450490441  6.0472810387388156  2.3814332759892864
  1.0042048816830147  6.0472810387388156  1.2352046411784288
  1.0042048816830147  2.0157603462462714  1.2352046411784288
  3.0126146450490441  2.0157603462462714  2.3814332759892864
