Ar  H 
 1.0000000000000000
     7.1113934461247315    0.0000000000000004    0.0000000000000004
     0.0000000000000000    3.3630468632919750    0.0000000000000002
     0.0000000000000000    0.0000000000000000    3.9764109862083936
 Ar  H  
   2  34
Cartesian
  0.0000000000000000  0.0000000000000000  1.9882054931041966
  3.5556967230623657  1.6815234316459875  1.9882054931041968
  3.5556967230623657  0.0000000000000002  0.0000000000000002
  0.0000000000000000  1.6815234316459873  0.0000000000000001
  1.7778483615311829  0.8407617158229937  1.9882054931041968
  5.3335450845935490  0.8407617158229940  1.9882054931041970
  5.3335450845935490  2.5222851474689816  1.9882054931041970
  1.7778483615311829  2.5222851474689807  1.9882054931041968
  0.0000000000000000  0.0000000000000000  1.1978973028957616
  0.0000000000000000  0.0000000000000000  2.7785136833126312
  3.5556967230623657  1.6815234316459875  1.1978973028957620
  3.5556967230623657  1.6815234316459875  2.7785136833126316
  1.0792303134122265  0.0000000000000001  1.5897200224636758
 -1.0792303134122265 -0.0000000000000001  1.5897200224636756
 -1.0792303134122265 -0.0000000000000001 -1.5897200224636758
  1.0792303134122265  0.0000000000000001 -1.5897200224636756
  4.6349270364745934  1.6815234316459875  1.5897200224636761
  2.4764664096501390  1.6815234316459877  1.5897200224636758
  2.4764664096501390  1.6815234316459877 -1.5897200224636754
  4.6349270364745934  1.6815234316459875 -1.5897200224636754
  3.3472028432195269  0.0000000000000002  0.4460100727269328
  3.7641906029052046  0.0000000000000002  0.4460100727269328
  3.7641906029052046  0.0000000000000002  3.5304009134814613
  3.3472028432195269  0.0000000000000002  3.5304009134814609
  6.9028995662818922  1.6815234316459877  0.4460100727269330
  0.2084938798428390  1.6815234316459873  0.4460100727269327
  0.2084938798428390  1.6815234316459873  3.5304009134814605
  6.9028995662818922  1.6815234316459877  3.5304009134814609
  4.6996881580906864  0.0000000000000003  0.7423408889682520
  2.4117052880340455  0.0000000000000001  0.7423408889682518
  2.4117052880340455  0.0000000000000001  3.2340700972401417
  4.6996881580906864  0.0000000000000003  3.2340700972401417
  1.1439914350283211  1.6815234316459873  0.7423408889682519
  5.9674020110964117  1.6815234316459879  0.7423408889682521
  5.9674020110964117  1.6815234316459879  3.2340700972401417
  1.1439914350283211  1.6815234316459873  3.2340700972401417
