Ar  H 
 1.0000000000000000
     7.9623979264339706    0.0000000000000005    0.0000000000000005
     0.0000000000000000    3.8231254150739025    0.0000000000000002
     0.0000000000000000    0.0000000000000000    4.2425306278657979
 Ar  H  
   8  16
Cartesian
  3.9811989632169849  0.0000000000000002  2.1212653139328994
  0.0000000000000000  1.9115627075369512  2.1212653139328985
  0.0000000000000000  0.0000000000000000  2.1212653139328990
  3.9811989632169849  1.9115627075369515  2.1212653139328994
  1.9905994816084924  0.9557813537684757  2.1212653139328985
  5.9717984448254775  0.9557813537684759  2.1212653139328994
  5.9717984448254775  2.8673440613054271  2.1212653139328990
  1.9905994816084924  2.8673440613054271  2.1212653139328994
  0.0000000000000000  0.0000000000000000  1.2600166585224530
  0.0000000000000000  0.0000000000000000  2.9825139693433451
  3.9811989632169849  1.9115627075369515  1.2600166585224535
  3.9811989632169849  1.9115627075369515  2.9825139693433451
  0.0000000000000000  1.9115627075369512  3.0100278995895562
  0.0000000000000000  1.9115627075369512  1.2325027282762417
  3.9811989632169849  0.0000000000000002  3.0100278995895566
  3.9811989632169849  0.0000000000000002  1.2325027282762420
  5.7155294095936853  0.0000000000000003  2.5650834510638232
 -5.7155294095936853 -0.0000000000000003  2.5650834510638223
 -5.7155294095936853 -0.0000000000000003 -2.5650834510638232
  5.7155294095936853  0.0000000000000003 -2.5650834510638223
  9.6967283728106679  1.9115627075369519  2.5650834510638236
 -1.7343304463766998  1.9115627075369517  2.5650834510638227
 -1.7343304463766998  1.9115627075369517 -2.5650834510638227
  9.6967283728106679  1.9115627075369519 -2.5650834510638219
