Ar  H 
 1.0000000000000000
    10.5214346922083219    0.0000000000000006    0.0000000000000006
     0.0000000000000000    5.2570078138062790    0.0000000000000003
     0.0000000000000000    0.0000000000000000    8.3041960334923459
 Ar  H  
   6  96
Cartesian
  0.0000000000000000  0.0000000000000000  4.1520980167461730
  5.2607173461041610  2.6285039069031400  4.1520980167461738
  2.6303586730520805  1.3142519534515700  0.0000000000000002
  7.8910760191562410  1.3142519534515700  0.0000000000000006
  7.8910760191562410  3.9427558603547097  0.0000000000000007
  2.6303586730520805  3.9427558603547088  0.0000000000000004
  6.1461513028794803  1.0849192418971509  6.6299797948109696
 -6.1461513028794803 -1.0849192418971509  6.6299797948109696
 -6.1461513028794803  1.0849192418971501 -6.6299797948109696
  6.1461513028794803 -1.0849192418971501 -6.6299797948109696
 -6.1461513028794803 -1.0849192418971509 -6.6299797948109696
  6.1461513028794803  1.0849192418971509 -6.6299797948109696
  6.1461513028794803 -1.0849192418971501  6.6299797948109696
 -6.1461513028794803  1.0849192418971501  6.6299797948109696
 11.4068686489836413  3.7134231488002909  6.6299797948109696
 -0.8854339567753192  1.5435846650059890  6.6299797948109687
 -0.8854339567753192  3.7134231488002900 -6.6299797948109696
 11.4068686489836413  1.5435846650059897 -6.6299797948109678
 -0.8854339567753192  1.5435846650059890 -6.6299797948109696
 11.4068686489836413  3.7134231488002909 -6.6299797948109687
 11.4068686489836413  1.5435846650059897  6.6299797948109704
 -0.8854339567753192  3.7134231488002900  6.6299797948109687
  8.6300323592858508  3.1540273378990045  7.0771582230987056
  1.8914023329224707  2.1029804759072745  7.0771582230987047
  1.8914023329224707  3.1540273378990045  1.2270378103936415
  8.6300323592858508  2.1029804759072750  1.2270378103936421
  1.8914023329224707  2.1029804759072745  1.2270378103936417
  8.6300323592858508  3.1540273378990045  1.2270378103936419
  8.6300323592858508  2.1029804759072750  7.0771582230987047
  1.8914023329224707  3.1540273378990045  7.0771582230987047
  3.3693150131816902  0.5255234309958653  7.0771582230987047
  7.1521196790266313  4.7314843828104136  7.0771582230987056
  7.1521196790266313  0.5255234309958655  1.2270378103936419
  3.3693150131816902  4.7314843828104136  1.2270378103936417
  7.1521196790266313  4.7314843828104136  1.2270378103936419
  3.3693150131816902  0.5255234309958653  1.2270378103936417
  3.3693150131816902  4.7314843828104136  7.0771582230987047
  7.1521196790266313  0.5255234309958655  7.0771582230987047
  6.3780683403650977  3.4489621137596735  2.7487854517262358
  4.1433663518432242  1.8080457000466061  2.7487854517262358
  4.1433663518432242  3.4489621137596735  5.5554105817661119
  6.3780683403650977  1.8080457000466064  5.5554105817661119
  4.1433663518432242  1.8080457000466061  5.5554105817661110
  6.3780683403650977  3.4489621137596735  5.5554105817661110
  6.3780683403650977  1.8080457000466064  2.7487854517262358
  4.1433663518432242  3.4489621137596735  2.7487854517262358
  1.1173509942609368  0.8204582068565337  2.7487854517262353
  9.4040836979473852  4.4365496069497459  2.7487854517262362
  9.4040836979473852  0.8204582068565340  5.5554105817661110
  1.1173509942609368  4.4365496069497450  5.5554105817661110
  9.4040836979473852  4.4365496069497459  5.5554105817661119
  1.1173509942609368  0.8204582068565337  5.5554105817661110
  1.1173509942609368  4.4365496069497450  2.7487854517262358
  9.4040836979473852  0.8204582068565340  2.7487854517262358
  1.4513469197401985  1.3014210135651285  1.5117560369264864
  9.0700877724681241  3.9555868002411509  1.5117560369264871
  9.0700877724681241  1.3014210135651292  6.7924399965658599
  1.4513469197401985  3.9555868002411505  6.7924399965658599
  9.0700877724681241  3.9555868002411509  6.7924399965658608
  1.4513469197401985  1.3014210135651285  6.7924399965658599
  1.4513469197401985  3.9555868002411505  1.5117560369264864
  9.0700877724681241  1.3014210135651292  1.5117560369264869
  6.7120642658443597  3.9299249204682685  1.5117560369264869
  3.8093704263639627  1.3270828933380112  1.5117560369264864
  3.8093704263639627  3.9299249204682685  6.7924399965658599
  6.7120642658443597  1.3270828933380114  6.7924399965658599
  3.8093704263639627  1.3270828933380112  6.7924399965658599
  6.7120642658443597  3.9299249204682685  6.7924399965658599
  6.7120642658443597  1.3270828933380114  1.5117560369264864
  3.8093704263639627  3.9299249204682685  1.5117560369264864
  1.6974135082027715  0.2936770888787147  6.2701710158822781
  8.8240211840055505  4.9633307249275651  6.2701710158822772
  8.8240211840055505  0.2936770888787151  2.0340250176100683
  1.6974135082027715  4.9633307249275642  2.0340250176100687
  8.8240211840055505  4.9633307249275651  2.0340250176100692
  1.6974135082027715  0.2936770888787147  2.0340250176100678
  1.6974135082027715  4.9633307249275642  6.2701710158822781
  8.8240211840055505  0.2936770888787151  6.2701710158822790
  6.9581308543069325  2.9221809957818539  6.2701710158822772
  3.5633038379013895  2.3348268180244247  6.2701710158822781
  3.5633038379013895  2.9221809957818543  2.0340250176100687
  6.9581308543069325  2.3348268180244252  2.0340250176100683
  3.5633038379013895  2.3348268180244247  2.0340250176100687
  6.9581308543069325  2.9221809957818539  2.0340250176100683
  6.9581308543069325  2.3348268180244252  6.2701710158822790
  3.5633038379013895  2.9221809957818543  6.2701710158822781
  4.1858291682018542  3.6450766572481630  5.1198913328020748
  6.3356055240064677  1.6119311565581167  5.1198913328020748
  6.3356055240064677  3.6450766572481625  3.1843047006902725
  4.1858291682018542  1.6119311565581163  3.1843047006902729
  6.3356055240064677  1.6119311565581167  3.1843047006902729
  4.1858291682018542  3.6450766572481630  3.1843047006902729
  4.1858291682018542  1.6119311565581163  5.1198913328020739
  6.3356055240064677  3.6450766572481625  5.1198913328020748
  9.4465465143060143  1.0165727503450237  5.1198913328020748
  1.0748881779023072  4.2404350634612555  5.1198913328020739
  1.0748881779023072  1.0165727503450230  3.1843047006902720
  9.4465465143060143  4.2404350634612564  3.1843047006902734
  1.0748881779023072  4.2404350634612555  3.1843047006902729
  9.4465465143060143  1.0165727503450237  3.1843047006902725
  9.4465465143060143  4.2404350634612564  5.1198913328020730
  1.0748881779023072  1.0165727503450230  5.1198913328020739
