Ar  H 
 1.0000000000000000
     8.1531316941716163    0.0000000000000005    0.0000000000000005
     0.0000000000000000    7.0314482417495636    0.0000000000000004
     0.0000000000000000    0.0000000000000000    6.6213642526321479
 Ar  H  
   8  24
Cartesian
  4.0765658470858082  0.0000000000000002  3.3106821263160753
  0.0000000000000000  3.5157241208747818  3.3106821263160739
  0.0000000000000000  0.0000000000000000  3.3106821263160739
  4.0765658470858082  3.5157241208747823  3.3106821263160744
  2.0382829235429041  1.7578620604373911  0.0000000000000002
  6.1148487706287122  1.7578620604373913  0.0000000000000005
  6.1148487706287122  5.2735861813121723  0.0000000000000007
  2.0382829235429041  5.2735861813121732  0.0000000000000004
  2.0382829235429041  1.7578620604373911  3.3106821263160753
  6.1148487706287122  1.7578620604373913  3.3106821263160744
  6.1148487706287122  5.2735861813121723  3.3106821263160757
  2.0382829235429041  5.2735861813121732  3.3106821263160744
  7.3109197742819125  0.0000000000000004  0.0000000000000004
  0.8422119198897041  0.0000000000000001  0.0000000000000001
  3.2343539271961039  3.5157241208747818  0.0000000000000004
  4.9187777669755119  3.5157241208747823  0.0000000000000005
  0.0000000000000000  3.9616739469226898  0.0000000000000002
  0.0000000000000000  3.0697742948268738  0.0000000000000002
  4.0765658470858082  0.4459498260479082  0.0000000000000003
  4.0765658470858082  6.5854984157016556  0.0000000000000007
  0.0000000000000000  3.5157241208747818  5.5495753589203201
  0.0000000000000000  3.5157241208747818  1.0717888937118281
  4.0765658470858082  0.0000000000000002  5.5495753589203201
  4.0765658470858082  0.0000000000000002  1.0717888937118281
  0.0000000000000000  5.2234712126042355  4.3114954872509541
  0.0000000000000000 -5.2234712126042355  4.3114954872509541
  0.0000000000000000  5.2234712126042355 -4.3114954872509541
  0.0000000000000000 -5.2234712126042355 -4.3114954872509541
  4.0765658470858082  8.7391953334790173  4.3114954872509550
  4.0765658470858082 -1.7077470917294524  4.3114954872509541
  4.0765658470858082  8.7391953334790173 -4.3114954872509532
  4.0765658470858082 -1.7077470917294524 -4.3114954872509541
