Ar  H 
 1.0000000000000000
     6.0728674630355632    0.0000000000000004    0.0000000000000004
     0.0000000000000000   11.6552882962622437    0.0000000000000007
     0.0000000000000000    0.0000000000000000    6.5629937872452029
 Ar  H  
   4  68
Cartesian
  3.0364337315177816  0.0000000000000002  0.0000000000000002
  0.0000000000000000  5.8276441481311219  0.0000000000000004
  3.0364337315177816  0.0000000000000002  3.2814968936226014
  0.0000000000000000  5.8276441481311219  3.2814968936226019
  4.6407128306331344  3.8235093483899587  3.8747956493094153
 -4.6407128306331344 -3.8235093483899587  3.8747956493094144
 -4.6407128306331344  3.8235093483899578 -3.8747956493094149
  4.6407128306331344 -3.8235093483899578 -3.8747956493094149
 -4.6407128306331344 -3.8235093483899587 -3.8747956493094153
  4.6407128306331344  3.8235093483899587 -3.8747956493094144
  4.6407128306331344 -3.8235093483899578  3.8747956493094149
 -4.6407128306331344  3.8235093483899578  3.8747956493094149
  7.6771465621509174  9.6511534965210792  3.8747956493094158
 -1.6042790991153528  2.0041347997411636  3.8747956493094149
 -1.6042790991153528  9.6511534965210792 -3.8747956493094144
  7.6771465621509174  2.0041347997411640 -3.8747956493094149
 -1.6042790991153528  2.0041347997411636 -3.8747956493094149
  7.6771465621509174  9.6511534965210792 -3.8747956493094140
  7.6771465621509174  2.0041347997411640  3.8747956493094153
 -1.6042790991153528  9.6511534965210792  3.8747956493094153
  2.1840065683809624  6.9838862154812817  1.6568750136163108
  3.8888608946546008  4.6714020807809611  1.6568750136163106
  3.8888608946546008  6.9838862154812817  4.9061187736288936
  2.1840065683809624  4.6714020807809611  4.9061187736288936
  3.8888608946546008  4.6714020807809611  4.9061187736288945
  2.1840065683809624  6.9838862154812817  4.9061187736288945
  2.1840065683809624  4.6714020807809611  1.6568750136163106
  3.8888608946546008  6.9838862154812817  1.6568750136163108
  5.2204402998987449  1.1562420673501601  1.6568750136163106
  0.8524271631368193 10.4990462289120838  1.6568750136163108
  0.8524271631368193  1.1562420673501599  4.9061187736288927
  5.2204402998987449 10.4990462289120821  4.9061187736288936
  0.8524271631368193 10.4990462289120838  4.9061187736288936
  5.2204402998987449  1.1562420673501601  4.9061187736288936
  5.2204402998987449 10.4990462289120821  1.6568750136163111
  0.8524271631368193  1.1562420673501599  1.6568750136163104
  0.5359308347405067  6.5207105055126844  4.3623477420497840
  5.5369366282950567  5.1345777907495593  4.3623477420497858
  5.5369366282950567  6.5207105055126844  2.2006460451954197
  0.5359308347405067  5.1345777907495593  2.2006460451954193
  5.5369366282950567  5.1345777907495593  2.2006460451954197
  0.5359308347405067  6.5207105055126844  2.2006460451954193
  0.5359308347405067  5.1345777907495593  4.3623477420497840
  5.5369366282950567  6.5207105055126844  4.3623477420497858
  3.5723645662582890  0.6930663573815626  4.3623477420497840
  2.5005028967772747 10.9622219388806812  4.3623477420497849
  2.5005028967772747  0.6930663573815625  2.2006460451954193
  3.5723645662582890 10.9622219388806812  2.2006460451954197
  2.5005028967772747 10.9622219388806812  2.2006460451954197
  3.5723645662582890  0.6930663573815626  2.2006460451954193
  3.5723645662582890 10.9622219388806812  4.3623477420497849
  2.5005028967772747  0.6930663573815625  4.3623477420497840
  1.9044758285448868  0.0000000000000001  0.0000000000000001
  4.1683916344906766  0.0000000000000003  0.0000000000000003
  4.9409095600626696  5.8276441481311210  0.0000000000000007
  1.1319579029728950  5.8276441481311219  0.0000000000000004
  3.2468227546119586 10.5955878580366534  0.0000000000000008
  2.8260447084236047  1.0597004382255903  0.0000000000000002
  2.8260447084236047 10.5955878580366534  0.0000000000000008
  3.2468227546119586  1.0597004382255903  0.0000000000000003
  0.2103890230941769  4.7679437099055315  0.0000000000000003
  5.8624784399413867  6.8873445863567122  0.0000000000000008
  5.8624784399413867  4.7679437099055315  0.0000000000000007
  0.2103890230941769  6.8873445863567122  0.0000000000000004
  3.8791809879094918  1.6885888376214868  0.0000000000000003
  2.1936864751260718  9.9666994586407576  0.0000000000000007
  2.1936864751260718  1.6885888376214868  0.0000000000000002
  3.8791809879094918  9.9666994586407576  0.0000000000000008
  0.8427472563917099  7.5162329857526080  0.0000000000000005
  5.2301202066438544  4.1390553105096357  0.0000000000000006
  5.2301202066438544  7.5162329857526080  0.0000000000000008
  0.8427472563917099  4.1390553105096357  0.0000000000000003
