Ar  H 
 1.0000000000000000
     4.8771232821240753    0.0000000000000003    0.0000000000000003
     0.0000000000000000    4.3134481427565294    0.0000000000000003
     0.0000000000000000    0.0000000000000000    6.5767006159469599
 Ar  H  
   4  58
Cartesian
  2.4385616410620377  0.0000000000000001  0.0000000000000001
  0.0000000000000000  2.1567240713782647  0.0000000000000001
  0.0000000000000000  0.0000000000000000  3.2883503079734799
  2.4385616410620377  2.1567240713782643  3.2883503079734804
  3.1227949033573315  2.5081652446715608  2.9772441031624592
 -3.1227949033573315 -2.5081652446715608  2.9772441031624579
 -3.1227949033573315  2.5081652446715608 -2.9772441031624588
  3.1227949033573315 -2.5081652446715608 -2.9772441031624588
 -3.1227949033573315 -2.5081652446715608 -2.9772441031624592
  3.1227949033573315  2.5081652446715608 -2.9772441031624579
  3.1227949033573315 -2.5081652446715608  2.9772441031624588
 -3.1227949033573315  2.5081652446715608  2.9772441031624588
  5.5613565444193691  4.6648893160498250  2.9772441031624588
 -0.6842332622952939 -0.3514411732932959  2.9772441031624588
 -0.6842332622952939  4.6648893160498250 -2.9772441031624579
  5.5613565444193691 -0.3514411732932956 -2.9772441031624579
 -0.6842332622952939 -0.3514411732932959 -2.9772441031624584
  5.5613565444193691  4.6648893160498250 -2.9772441031624579
  5.5613565444193691 -0.3514411732932956  2.9772441031624592
 -0.6842332622952939  4.6648893160498250  2.9772441031624588
  0.9351073940818666  0.1832083119274888  0.5911783749361019
  3.9420158880422087  4.1302398308290398  0.5911783749361021
  3.9420158880422087  0.1832083119274890  5.9855222410108588
  0.9351073940818666  4.1302398308290407  5.9855222410108588
  3.9420158880422087  4.1302398308290398  5.9855222410108597
  0.9351073940818666  0.1832083119274888  5.9855222410108579
  0.9351073940818666  4.1302398308290407  0.5911783749361021
  3.9420158880422087  0.1832083119274890  0.5911783749361019
  3.3736690351439043  2.3399323833057535  0.5911783749361020
  1.5034542469801713  1.9735157594507757  0.5911783749361020
  1.5034542469801713  2.3399323833057535  5.9855222410108588
  3.3736690351439043  1.9735157594507762  5.9855222410108588
  1.5034542469801713  1.9735157594507757  5.9855222410108579
  3.3736690351439043  2.3399323833057535  5.9855222410108588
  3.3736690351439043  1.9735157594507762  0.5911783749361021
  1.5034542469801713  2.3399323833057535  0.5911783749361019
  4.0623013462136823  1.0761236916773815  2.7443669987254098
  0.8148219359103931  3.2373244510791483  2.7443669987254098
  0.8148219359103931  1.0761236916773813  3.8323336172215505
  4.0623013462136823  3.2373244510791488  3.8323336172215510
  0.8148219359103931  3.2373244510791483  3.8323336172215510
  4.0623013462136823  1.0761236916773815  3.8323336172215510
  4.0623013462136823  3.2373244510791488  2.7443669987254098
  0.8148219359103931  1.0761236916773813  2.7443669987254093
  1.6237397051516447  3.2328477630556458  2.7443669987254098
  3.2533835769724306  1.0806003797008836  2.7443669987254098
  3.2533835769724306  3.2328477630556458  3.8323336172215510
  1.6237397051516447  1.0806003797008834  3.8323336172215505
  3.2533835769724306  1.0806003797008836  3.8323336172215510
  1.6237397051516447  3.2328477630556458  3.8323336172215510
  1.6237397051516447  1.0806003797008834  2.7443669987254093
  3.2533835769724306  3.2328477630556458  2.7443669987254098
  0.0000000000000000  0.0000000000000000  0.0000000000000000
  2.4385616410620377  2.1567240713782643  0.0000000000000003
  1.2966076999219738  0.0000000000000001  0.0000000000000001
  3.5805155822021018  0.0000000000000002  0.0000000000000002
  3.7351693409840112  2.1567240713782652  0.0000000000000004
  1.1419539411400639  2.1567240713782643  0.0000000000000002
  0.0000000000000000  1.9044198362803306  3.2883503079734799
  0.0000000000000000  2.4090283064761988  3.2883503079734799
  2.4385616410620377  4.0611439076585949  3.2883503079734804
  2.4385616410620377  0.2523042350979343  3.2883503079734799
