Ar  H 
 1.0000000000000000
     4.9955092235504779    0.0000000000000003    0.0000000000000003
     0.0000000000000000    4.6499482580433593    0.0000000000000003
     0.0000000000000000    0.0000000000000000    5.4891768537014309
 Ar  H  
   2  28
Cartesian
  0.0000000000000000  0.0000000000000000  0.0000000000000000
  2.4977546117752389  2.3249741290216792  0.0000000000000003
  1.2488773058876195  1.1624870645108396  0.0000000000000001
  3.7466319176628584  1.1624870645108401  0.0000000000000003
  3.7466319176628584  3.4874611935325199  0.0000000000000004
  1.2488773058876195  3.4874611935325195  0.0000000000000003
  1.8468374267676178  0.0000000000000001  2.7445884268507150
  3.1486717967828604  0.0000000000000002  2.7445884268507150
  4.3445920385428565  2.3249741290216801  2.7445884268507159
  0.6509171850076213  2.3249741290216797  2.7445884268507150
  1.4931095784765600  0.0000000000000001  2.7445884268507150
  3.5023996450739179  0.0000000000000002  2.7445884268507150
  3.9908641902517989  2.3249741290216801  2.7445884268507159
  1.0046450332986789  2.3249741290216797  2.7445884268507150
  3.8509527067380454  0.5502875580919002  0.0000000000000003
 -3.8509527067380454 -0.5502875580919002 -0.0000000000000003
 -3.8509527067380454  0.5502875580918998 -0.0000000000000002
  3.8509527067380454 -0.5502875580918998  0.0000000000000002
  6.3487073185132843  2.8752616871135803  0.0000000000000006
 -1.3531980949628066  1.7746865709297797  0.0000000000000000
 -1.3531980949628066  2.8752616871135799  0.0000000000000001
  6.3487073185132843  1.7746865709297801  0.0000000000000005
  3.2973829722099457  3.3477757444032723  0.0000000000000004
  1.6981262513405320  1.3021725136400870  0.0000000000000002
  1.6981262513405320  3.3477757444032723  0.0000000000000003
  3.2973829722099457  1.3021725136400872  0.0000000000000003
  0.7996283604347069  1.0228016153815926  0.0000000000000001
  4.1958808631157707  3.6271466426617671  0.0000000000000005
  4.1958808631157707  1.0228016153815929  0.0000000000000003
  0.7996283604347069  3.6271466426617667  0.0000000000000003
