Ar  H 
 1.0000000000000000
     4.4162375699304040    0.0000000000000003    0.0000000000000003
     0.0000000000000000    4.5526435550041926    0.0000000000000003
     0.0000000000000000    0.0000000000000000    6.7935012743569692
 Ar  H  
   2  16
Cartesian
  2.2081187849652020  0.0000000000000001  0.0000000000000001
  0.0000000000000000  2.2763217775020963  0.0000000000000001
  0.0000000000000000  0.0000000000000000  0.0000000000000000
  2.2081187849652020  2.2763217775020959  0.0000000000000003
  0.0000000000000000  0.0000000000000000  3.3967506371784846
  2.2081187849652020  2.2763217775020959  3.3967506371784859
  3.1456583057721152  0.0000000000000002  0.0000000000000002
 -3.1456583057721152 -0.0000000000000002 -0.0000000000000002
  5.3537770907373172  2.2763217775020967  0.0000000000000005
 -0.9375395208069133  2.2763217775020963  0.0000000000000001
  3.6977899836184700  0.0000000000000002  0.0000000000000002
  0.7184475863119340  0.0000000000000000  0.0000000000000000
  1.4896711986532682  2.2763217775020959  0.0000000000000002
  2.9265663712771364  2.2763217775020959  0.0000000000000003
  4.0241582012301143  0.0000000000000002  0.0000000000000002
  0.3920793687002898  0.0000000000000000  0.0000000000000000
  1.8160394162649121  2.2763217775020959  0.0000000000000003
  2.6001981536654917  2.2763217775020959  0.0000000000000003
