Ar  H 
 1.0000000000000000
     6.6738402319798666    0.0000000000000004    0.0000000000000004
     0.0000000000000000    5.2695238023788527    0.0000000000000003
     0.0000000000000000    0.0000000000000000   11.7232071845582340
 Ar  H  
   8  50
Cartesian
  3.3369201159899333  0.0000000000000002  0.0000000000000002
  0.0000000000000000  2.6347619011894263  0.0000000000000002
  3.3369201159899333  0.0000000000000002  5.8616035922791170
  0.0000000000000000  2.6347619011894263  5.8616035922791170
  1.6684600579949667  1.3173809505947129  5.8616035922791170
  5.0053801739849000  1.3173809505947132  5.8616035922791161
  5.0053801739849000  3.9521428517841399  5.8616035922791179
  1.6684600579949667  3.9521428517841395  5.8616035922791161
  1.7270944362975811  4.3175792695514996  0.9771376244475785
 -1.7270944362975811 -4.3175792695514996  0.9771376244475778
 -1.7270944362975811  4.3175792695514996 -0.9771376244475780
  1.7270944362975811 -4.3175792695514996 -0.9771376244475782
 -1.7270944362975811 -4.3175792695514996 -0.9771376244475785
  1.7270944362975811  4.3175792695514996 -0.9771376244475778
  1.7270944362975811 -4.3175792695514996  0.9771376244475780
 -1.7270944362975811  4.3175792695514996  0.9771376244475782
  5.0640145522875155  6.9523411707409259  0.9771376244475789
  1.6098256796923522 -1.6828173683620733  0.9771376244475781
  1.6098256796923522  6.9523411707409259 -0.9771376244475776
  5.0640145522875155 -1.6828173683620731 -0.9771376244475779
  1.6098256796923522 -1.6828173683620733 -0.9771376244475781
  5.0640145522875155  6.9523411707409259 -0.9771376244475773
  5.0640145522875155 -1.6828173683620731  0.9771376244475783
  1.6098256796923522  6.9523411707409259  0.9771376244475787
  2.5986452962827449  0.7495668352408668  7.4903425666086614
  4.0751949356971222  4.5199569671379862  7.4903425666086623
  4.0751949356971222  0.7495668352408669  4.2328646179495726
  2.5986452962827449  4.5199569671379862  4.2328646179495726
  4.0751949356971222  4.5199569671379862  4.2328646179495735
  2.5986452962827449  0.7495668352408668  4.2328646179495717
  2.5986452962827449  4.5199569671379862  7.4903425666086614
  4.0751949356971222  0.7495668352408669  7.4903425666086614
  5.9355654122726778  3.3843287364302928  7.4903425666086623
  0.7382748197071890  1.8851950659485597  7.4903425666086614
  0.7382748197071890  3.3843287364302932  4.2328646179495717
  5.9355654122726778  1.8851950659485597  4.2328646179495735
  0.7382748197071890  1.8851950659485597  4.2328646179495717
  5.9355654122726778  3.3843287364302928  4.2328646179495735
  5.9355654122726778  1.8851950659485597  7.4903425666086623
  0.7382748197071890  3.3843287364302932  7.4903425666086614
  0.0000000000000000  0.0000000000000000  0.0000000000000000
  3.3369201159899333  2.6347619011894259  0.0000000000000004
  1.6684600579949667  1.3173809505947129  0.0000000000000002
  5.0053801739849000  1.3173809505947132  0.0000000000000004
  5.0053801739849000  3.9521428517841399  0.0000000000000005
  1.6684600579949667  3.9521428517841395  0.0000000000000003
  0.0000000000000000  2.6347619011894263  7.4165312775853440
  0.0000000000000000  2.6347619011894263  4.3066759069728899
  3.3369201159899333  0.0000000000000002  7.4165312775853440
  3.3369201159899333  0.0000000000000002  4.3066759069728899
  0.7205960560925663  0.0000000000000000  4.5194759471271118
  5.9532441758873009  0.0000000000000004  4.5194759471271118
  5.9532441758873009  0.0000000000000004  7.2037312374311222
  0.7205960560925663  0.0000000000000000  7.2037312374311222
  4.0575161720824990  2.6347619011894268  4.5194759471271118
  2.6163240598973672  2.6347619011894259  4.5194759471271118
  2.6163240598973672  2.6347619011894259  7.2037312374311222
  4.0575161720824990  2.6347619011894268  7.2037312374311222
