Ar  H 
 1.0000000000000000
     8.4734737707536691    0.0000000000000005    0.0000000000000005
     0.0000000000000000    8.3698184056884806    0.0000000000000005
     0.0000000000000000    0.0000000000000000    7.1839001009496455
 Ar  H  
   6  18
Cartesian
  4.2367368853768346  0.0000000000000003  3.5919500504748232
  0.0000000000000000  4.1849092028442403  3.5919500504748232
  2.1183684426884173  2.0924546014221201  3.5919500504748232
  6.3551053280652514  2.0924546014221206  3.5919500504748227
  6.3551053280652514  6.2773638042663604  3.5919500504748236
 10.5918422134420869  6.2773638042663622  3.5919500504748232
  0.0000000000000000  0.0000000000000000  0.0000000000000000
  4.2367368853768346  4.1849092028442403  0.0000000000000005
  0.4391164361782535  0.0000000000000000  0.0000000000000000
  8.0343573345754162  0.0000000000000005  0.0000000000000005
  4.6758533215550884  4.1849092028442403  0.0000000000000005
  3.7976204491985812  4.1849092028442403  0.0000000000000005
  0.0000000000000000  2.1182891431260757  3.5919500504748223
  0.0000000000000000  6.2515292625624062  3.5919500504748227
  4.2367368853768346  6.3031983459703174  3.5919500504748227
  4.2367368853768346  2.0666200597181654  3.5919500504748227
  0.0000000000000000  0.7907264903578218  3.5919500504748223
  0.0000000000000000  7.5790919153306602  3.5919500504748227
  4.2367368853768346  4.9756356932020616  3.5919500504748227
  4.2367368853768346  3.3941827124864195  3.5919500504748227
  0.0000000000000000  0.0000000000000000  1.8579642904170166
  0.0000000000000000  0.0000000000000000  5.3259358105326280
  4.2367368853768346  4.1849092028442403  1.8579642904170171
  4.2367368853768346  4.1849092028442403  5.3259358105326298
