Ar  H 
 1.0000000000000000
     8.2490656726294240    0.0000000000000005    0.0000000000000005
     0.0000000000000000    6.3241805819079380    0.0000000000000004
     0.0000000000000000    0.0000000000000000    8.6968761107721999
 Ar  H  
   8  46
Cartesian
  0.0000000000000000  0.0000000000000000  0.0000000000000000
  4.1245328363147120  3.1620902909539694  0.0000000000000004
  0.0000000000000000  0.0000000000000000  4.3484380553861000
  4.1245328363147120  3.1620902909539694  4.3484380553861008
  2.0622664181573560  1.5810451454769847  0.0000000000000002
  6.1867992544720680  1.5810451454769849  0.0000000000000005
  6.1867992544720680  4.7431354364309533  0.0000000000000007
  2.0622664181573560  4.7431354364309524  0.0000000000000004
  0.4667007336594814  0.3021405586343484  6.3295977808398245
 -0.4667007336594814 -0.3021405586343484  6.3295977808398245
 -0.4667007336594814  0.3021405586343482 -6.3295977808398245
  0.4667007336594814 -0.3021405586343482 -6.3295977808398245
 -0.4667007336594814 -0.3021405586343484 -6.3295977808398245
  0.4667007336594814  0.3021405586343484 -6.3295977808398245
  0.4667007336594814 -0.3021405586343482  6.3295977808398245
 -0.4667007336594814  0.3021405586343482  6.3295977808398245
  4.5912335699741931  3.4642308495883176  6.3295977808398263
  3.6578321026552305  2.8599497323196212  6.3295977808398254
  3.6578321026552305  3.4642308495883176 -6.3295977808398254
  4.5912335699741931  2.8599497323196208 -6.3295977808398245
  3.6578321026552305  2.8599497323196212 -6.3295977808398254
  4.5912335699741931  3.4642308495883176 -6.3295977808398245
  4.5912335699741931  2.8599497323196208  6.3295977808398263
  3.6578321026552305  3.4642308495883176  6.3295977808398254
  1.6576790371777519  2.5653792956912009  7.5147387761956628
  6.5913866354516735  3.7588012862167370  7.5147387761956637
  6.5913866354516735  2.5653792956912018  1.1821373345765376
  1.6576790371777519  3.7588012862167366  1.1821373345765371
  6.5913866354516735  3.7588012862167370  1.1821373345765374
  1.6576790371777519  2.5653792956912009  1.1821373345765371
  1.6576790371777519  3.7588012862167366  7.5147387761956628
  6.5913866354516735  2.5653792956912018  7.5147387761956637
  5.7822118734924635  5.7274695866451708  7.5147387761956628
  2.4668537991369601  0.5967109952627676  7.5147387761956628
  2.4668537991369601  5.7274695866451708  1.1821373345765374
  5.7822118734924635  0.5967109952627678  1.1821373345765371
  2.4668537991369601  0.5967109952627676  1.1821373345765369
  5.7822118734924635  5.7274695866451708  1.1821373345765376
  5.7822118734924635  0.5967109952627678  7.5147387761956628
  2.4668537991369601  5.7274695866451708  7.5147387761956637
  4.1245328363147120  0.0000000000000003  4.3484380553860991
  0.0000000000000000  3.1620902909539690  4.3484380553860991
  5.9486438821300034  0.0000000000000004  0.0000000000000004
  2.3004217904994202  0.0000000000000001  0.0000000000000001
  1.8241110458152916  3.1620902909539690  0.0000000000000003
  6.4249546268141327  3.1620902909539694  0.0000000000000006
  0.0000000000000000  0.0000000000000000  5.9785639785238818
  0.0000000000000000  0.0000000000000000  2.7183121322483186
  4.1245328363147120  3.1620902909539694  5.9785639785238827
  4.1245328363147120  3.1620902909539694  2.7183121322483190
  0.0000000000000000  0.0000000000000000  0.7291993934827176
  0.0000000000000000  0.0000000000000000  7.9676767172894811
  4.1245328363147120  3.1620902909539694  0.7291993934827180
  4.1245328363147120  3.1620902909539694  7.9676767172894829
