New structure
1.0
        4.0000000000         0.0000000000         0.0000000000
       -0.6901840791         2.5758020499         0.0000000000
        0.0000000000         0.0000000000         3.0000000000
   Ca
    2
Direct
     0.000000000         0.000000000         0.000000000
     0.000000000         0.500000000         0.500000000
