ISTART   = 0      
ICHARG   = 2      
ENCUT    = 800     
PREC     = Accurate
ISMEAR   = 0   
SIGMA    = 0.01
NELM     = 300
NELMIN   = 2      
EDIFF    = 1e-8     
EDIFFG   = -0.001     
IBRION   = -1     
NSW      = 0      
ALGO     = Normal 
LREAL    = .FALSE.  
NPAR     = 4         

LWAVE     = F
LCHARG    = F

NPAR      = 4
KPAR      = 4
