ACNN OOS conf.  H Be Y La Ce Th
1.0
         10.8133316500          0.0000000000          0.0000000000
          0.0000000000         10.7075881200          0.0000000000
          0.0000000000          0.0000000000          5.3477041100
H  Be  Y  La  Ce  Th  
128  16  4  4  4  4  
Cartesian
            0.72884000            6.12937000            4.44413000
            0.77466000            8.84788000            1.92210000
            0.77804000            7.22209000            3.45867000
            0.77980000            3.54190000            3.43064000
            0.78614000            0.73940000            4.59355000
            0.78781000            8.75919000            3.40988000
            0.79665000            6.06084000            0.80157000
            0.82412000            4.65257000            4.44682000
            0.83925000            4.55853000            0.85454000
            0.84090000            0.87315000            0.89059000
            0.85665000            1.83063000            1.98690000
            0.85826000            9.93117000            4.51657000
            0.89568000            9.92760000            0.81709000
            0.90996000            3.42682000            1.89591000
            0.92179000            7.15741000            1.97589000
            0.93527000            1.84052000            3.38592000
            1.80009000            8.88685000            0.80686000
            1.80489000            7.28043000            4.59118000
            1.80676000            3.58004000            4.46677000
            1.82497000            6.10999000            3.43954000
            1.83886000            6.12248000            1.95564000
            1.84159000            1.90102000            4.50328000
            1.86662000            4.52196000            3.40080000
            1.87992000            8.74974000            4.42439000
            1.88327000            9.95391000            1.91815000
            1.88435000            3.50399000            0.81634000
            1.90440000            0.77929000            3.47543000
            1.90904000            0.86537000            1.78684000
            1.91311000            4.42891000            1.87183000
            1.93044000            9.88056000            3.46597000
            1.93328000            1.92410000            0.91248000
            1.95369000            7.21942000            0.90506000
            3.42528000            3.46471000            0.90313000
            3.43655000            4.59793000            1.88220000
            3.44788000            9.77301000            3.38796000
            3.45464000            9.82487000            1.93347000
            3.47498000            0.90048000            1.80174000
            3.52076000            8.77985000            0.91049000
            3.52220000            0.87737000            3.41453000
            3.53055000            6.12302000            1.80185000
            3.53163000            7.22240000            0.86918000
            3.53508000            8.86364000            4.54351000
            3.54336000            1.93655000            4.49261000
            3.54706000            6.17697000            3.40312000
            3.55643000            1.87795000            0.74467000
            3.57682000            3.42383000            4.44413000
            3.60717000            4.54097000            3.46146000
            3.60854000            7.19558000            4.55490000
            4.46600000            3.43210000            1.99243000
            4.47559000            1.94323000            3.37462000
            4.51129000            7.31993000            1.95357000
            4.51603000            7.29409000            3.42799000
            4.52573000            1.81561000            1.99298000
            4.53635000            6.18609000            4.46321000
            4.54913000            0.87394000            4.50231000
            4.57513000            8.75691000            3.45952000
            4.60738000            4.49192000            4.50141000
            4.61983000            9.91530000            4.58077000
            4.63704000            3.53255000            3.50690000
            4.64414000            9.94277000            0.83122000
            4.65015000            8.87262000            1.83594000
            4.65564000            6.16323000            0.86809000
            4.66648000            0.76354000            0.84379000
            4.67738000            4.57966000            0.84169000
            6.13335000            9.84597000            4.42596000
            6.13784000            0.78145000            4.42253000
            6.15298000            6.11029000            0.78041000
            6.16484000            8.86011000            3.50030000
            6.18604000            1.80320000            1.86149000
            6.21173000            7.17339000            1.89017000
            6.21399000            3.49097000            3.45437000
            6.21680000            4.47104000            4.54351000
            6.22716000            9.90984000            0.85481000
            6.23935000            8.80891000            1.91142000
            6.23960000            6.09529000            4.51326000
            6.26650000            7.15573000            3.37575000
            6.28050000            4.61205000            0.84520000
            6.28825000            0.86455000            0.87245000
            6.30834000            3.46574000            1.85562000
            6.32396000            1.92939000            3.37879000
            7.19744000            3.43526000            0.90345000
            7.21478000            9.87400000            3.47860000
            7.23735000            7.23060000            4.47174000
            7.24204000            1.79653000            4.48008000
            7.25213000            1.88739000            0.79783000
            7.25619000            6.09850000            3.38413000
            7.27012000            4.59342000            3.51249000
            7.27523000            4.52563000            1.88598000
            7.29277000            8.76904000            4.48319000
            7.30680000            0.82326000            3.55834000
            7.30965000            9.94601000            1.84777000
            7.32508000            7.20107000            0.86519000
            7.32845000            3.55274000            4.41583000
            7.33831000            6.14124000            1.87140000
            7.35823000            8.88189000            0.79098000
            7.37454000            0.81438000            1.83606000
            8.84267000            4.44853000            1.96879000
            8.85224000            1.93132000            4.43868000
            8.86520000            0.85694000            1.83822000
            8.88159000            3.52106000            0.74638000
            8.88167000            8.81196000            4.51492000
            8.88437000            7.24719000            0.80191000
            8.90324000            3.45616000            4.48612000
            8.92569000            0.77240000            3.47886000
            8.93986000            9.87218000            1.82200000
            8.95066000            6.25814000            3.48830000
            8.95338000            4.45388000            3.46234000
            8.97277000            6.19633000            1.95687000
            8.99657000            9.88207000            3.53790000
            9.00241000            8.90743000            0.85157000
            9.00382000            1.84445000            0.83684000
            9.01186000            7.18343000            4.45511000
            9.89021000            7.21315000            1.84830000
            9.89708000            9.92275000            4.50345000
            9.91130000            7.32776000            3.48841000
            9.92548000            4.48209000            4.53905000
            9.92720000            9.99117000            0.88694000
            9.93733000            1.94117000            3.45423000
            9.94865000            4.55890000            0.86146000
            9.96662000            1.95506000            1.96175000
            9.96793000            3.44493000            3.48738000
            9.97006000            0.85612000            0.74583000
            9.99094000            8.76752000            3.36632000
           10.00339000            6.07158000            4.42278000
           10.03651000            8.76259000            1.93966000
           10.03982000            3.52630000            1.96940000
           10.06095000            6.12515000            0.92153000
           10.06847000            0.87799000            4.57241000
           10.78087000           10.68630000            5.33181000
           10.79384000            5.35372000            5.33971000
           10.80267000            2.64440000            2.64657000
            0.03235000            8.05226000            2.67332000
            2.70450000            2.68182000            5.32709000
            2.70583000           10.69081000            2.70005000
            2.71257000            5.35920000            2.65057000
            2.72666000            8.01177000            5.33077000
            5.37985000            8.02604000            2.69915000
            5.39162000            2.67782000            2.69887000
            5.40342000            0.01704000            0.00121000
            5.40832000            5.32470000            5.32427000
            8.07600000            8.04017000            5.33680000
            8.11072000           10.67796000            2.69154000
            8.11402000            2.66723000            0.03105000
            8.13984000            5.36095000            2.65635000
           10.81292000            5.35583000            2.67868000
            0.00244000           10.69607000            2.67920000
            5.40519000            5.35995000            2.66484000
            5.41214000            0.01082000            2.67007000
           10.80376000            2.68553000            5.34546000
           10.80734000            8.03870000            5.34630000
            5.41000000            8.02877000            0.00771000
            5.41376000            2.67451000            5.34649000
            2.70141000            8.03882000            2.68423000
            2.70441000            2.67183000            2.66724000
            8.11513000            2.67294000            2.67601000
            8.11564000            8.02572000            2.66777000
            2.69661000            0.00648000            0.00136000
            2.70606000            5.34825000            5.34661000
            8.11106000            0.00221000            0.00443000
            8.11154000            5.34852000            5.34574000
