SYSTEM = SCF
PREC = Accurate 
ENCUT = 850
EDIFF = 1e-6
EDIFFG = -0.1
KSPACING = 0.188
ISMEAR = 0
SIGMA = 0.05
POTIM = 0.05
ISTART = 0
LWAVE = FALSE
LCHARG = FALSE
PSTRESS = 1800
NPAR = 4
KGAMMA = .TRUE.
