EA160   4.584  4.399  9.956 81.18 91.91 83.58 Sym.group:    1
1.0
    4.578110     0.220801    -0.080766
    0.286712     4.379506     0.302179
   -0.198910     0.861926     9.917081
   Y  Al   H
   8  11   1
Direct
    0.555423     0.528197     0.367286 
    0.318746     0.324533     0.150122 
    0.629274     0.459021     0.730092 
    0.220372     0.891298     0.747493 
    0.252188     0.827433     0.187993 
    0.779037     0.096132     0.282099 
    0.735169     0.951216     0.789578 
    0.112441     0.380143     0.799219 
    0.886168     0.166792     0.022956 
    0.046776     0.692113     0.971517 
    0.416917     0.047522     0.973630 
    0.768808     0.650962     0.144274 
    0.287071     0.051150     0.388442 
    0.753505     0.764273     0.538817 
    0.241560     0.661918     0.554220 
    0.947105     0.228402     0.548732 
    0.039730     0.547849     0.364738 
    0.457761     0.172602     0.569711 
    0.541229     0.552566     0.952796 
    0.968231     0.941228     0.448415 
