Electron-phonon coefficients for Ce1Sc2H24
 &inputph
  tr2_ph=1.0d-14,
  prefix='Ce1Sc2H24',
  fildvscf='dvscf',
  electron_phonon='interpolated',
  el_ph_sigma=0.005,
  el_ph_nsigma=10,
  alpha_mix(1)=0.3,
  amass(1)=140.116 ,
  amass(2)=44.955912 ,
  amass(3)=1.00794 ,
  outdir='./tmp',
  fildyn='Ce1Sc2H24.dyn',
  trans=.false.,
  ldisp=.false.,
  nq1=6,nq2=6,nq3=6,
  start_q=1
  last_q=1
/
XQ1 XQ2 XQ3
