ISTART = 0
SYSTEM = OPT
PREC = Normal
ENCUT = 800
EDIFF = 1e-7
KSPACING = 0.2
IBRION = -1
ISMEAR = 0
SIGMA = 0.01

LWAVE = FALSE
LCHARG = FALSE
NPAR = 4
KPAR = 4

LREAL = F

PSTRESS = 3000
