SYSTEM = OPT
PREC = Normal
ENCUT = 350
EDIFF = 1e-3
IBRION = 2
ISIF = 4
KSPACING =0.6
NSW = 200
ISMEAR = 0
SIGMA = 0.05
POTIM = 0.2
ISTART = 0
LWAVE = FALSE
LCHARG = FALSE
PSTRESS = xxx
NPAR = 4
