 Y Al 
 1.0000000000000000
     3.3878800000000000    0.0000000000000000    0.0000000000000000
     0.0000000000000000    3.3878800000000000    0.0000000000000000
     0.0000000000000000    0.0000000000000000    3.3878800000000000
 Y   Al 
   1   3
Cartesian
  1.6939400000000000  1.6939400000000000  1.6939400000000000
  1.6939400000000000  0.0000000000000000  0.0000000000000000
  0.0000000000000000  0.0000000000000000  1.6939400000000000
  0.0000000000000000  1.6939400000000000  0.0000000000000000
