Al  H 
 1.0000000000000000
     3.4300000000000002    0.0000000000000000    0.0000000000000000
     0.0000000000000000    2.4540000000000002    0.0000000000000000
    -0.3483242212341773    0.0000000000000000    4.9688058159784836
 Al  H  
   4   6
Cartesian
  1.0440438947233894  1.2270000000000001  0.3970075846966808
  2.7700865605846112  0.0000000000000000  1.4871635807223602
  2.3743782080094240  0.0000000000000000  4.2940419861686054
  0.9229819935150853  1.2270000000000001  2.8138347335886156
  2.5770109312138199  1.2270000000000001  2.4163302683103365
 -0.0350078952325571  0.0000000000000000  2.9653833109759589
  0.7638887107430535  0.0000000000000000  4.2955326279133992
  1.8696730919257563  0.0000000000000000  2.8674978364011827
 -0.1936490691678862  1.2270000000000001  3.9611319964980471
  1.0493658320404176  0.0000000000000000  1.5443048476061128
