Al  H 
 1.0000000000000000
     3.6619999999999999    0.0000000000000000    0.0000000000000000
    -1.6634436096254019    3.8652579936656766    0.0000000000000000
     0.1284517730841868    1.5346775058417084    3.0491508809921166
 Al  H  
   4   7
Cartesian
  2.1789406681335408  2.0615547608860672  0.4796314335800599
  2.0497939387438757  4.3883533406956863  1.1629461460103934
  0.1085983002612192  2.7768051050549527  1.9176109890559423
  0.3669423791960908  5.1998618520125470  2.8036942350722511
  2.0658094476105924  5.2016368585856778  2.7219769914616627
  0.9848304188704003  1.0561179316072766  0.0686058948223226
 -0.5449139241069293  4.0847454385056894  2.2438701333220985
  1.1425986287472378  3.1393743563278544  0.8839488403996146
  1.1601386913110068  3.9184113249111534  2.4018161489574905
  1.1253084056628151  1.6353104153127827  1.5480539022796977
  2.1907788752873247  2.7821692053068916  2.0127444965428962
