 Y  H 
 1.0000000000000000
     3.3590000000000000    0.0000000000000000    0.0000000000000000
    -0.0134699085298072    3.3409728465769066    0.0000000000000000
     0.2079789205491082   -0.2290859039822059    3.0071237781647571
 Y   H  
   1  13
Cartesian
  1.6967997196393123  1.3982664472133628  1.4112431890927204
  3.3895057542253770  0.8627499437339616  1.8448704379040783
  0.1738232741721921  2.3500032158177362  2.1888853981261267
  3.3802619521044575  0.4019626105207271  1.1177479083438402
  0.0556709679136466  2.2864305074494644  0.7472702588739422
  0.7833238820577293  2.9375353611888944  2.2258730205975530
  2.3989787822219828 -0.1288590159317503  2.2703784525143917
  2.4978669033561585  3.0461539919320217  1.2386342842260631
  0.8921227007056460  3.0166410924158837  0.7226118438929910
  0.2968434552066666  1.5298623941259051  0.1223899377713056
  2.6168757972188508  2.0674184045440605  2.9292392723102898
  2.6854220520910155  0.4885888520113981  2.8224863781854408
  1.6090741862846960  2.6995578915308935  0.0914165628562086
  0.9186579096843935  0.5282684997355603  2.9331485332219041
