 Y Al  H 
 1.0000000000000000
     4.6230000000000002    0.0000000000000000    0.0000000000000000
     0.0000000000000000    2.5790000000000002    0.0000000000000000
    -2.2897635775963976    0.0000000000000000    4.0253128771206033
 Y   Al  H  
   1   2  13
Cartesian
 -0.0386796153234562  1.2895000000000001  0.0712480379250347
  2.3815225951257410  0.0000000000000000  1.4096645695676353
 -0.1066142819681172  0.0000000000000000  2.7295646619754810
  0.0947170309866367  1.2895000000000001  1.8733806130119286
 -0.5098881546430620  1.2895000000000001  3.7294523806522388
  0.7104493120393360  1.2895000000000001  3.1908655176935019
  2.8999032164205123  1.2895000000000001  0.7511233828707046
  1.3785620593285450  1.2895000000000001  1.3239254052849665
  1.7079931313735550  1.2895000000000001  2.2734967129977166
  0.7825414123672839  0.0000000000000000  1.3452595635337057
  3.2323164674939715  1.2895000000000001  2.3813750981045492
  0.8461071856579793  0.0000000000000000  3.9991483434193196
  1.5362144145189305  0.0000000000000000  2.7380178190174345
 -0.7059022502618858  0.0000000000000000  1.2897102458294414
  1.4350255322842445  0.0000000000000000  0.0941923213246221
  2.9544869768461135  0.0000000000000000  2.8974202089514103
