Al  H 
 1.0000000000000000
     3.1800000000000002    0.0000000000000000    0.0000000000000000
     0.0000000000000000    2.4310000000000000    0.0000000000000000
    -1.4459111473295205    0.0000000000000000    4.7581582523102606
 Al  H  
   3   8
Cartesian
 -0.7229555736647603  0.0000000000000000  2.3790791261551303
  0.7976981983307769  1.2155000000000000  0.8031771129899720
  0.9363906543397026  1.2155000000000000  3.9549811393202883
  1.5228731861070639  1.2155000000000000  2.4090555231446849
  0.2112156665634157  1.2155000000000000  2.3491027291655757
  0.7919892700702488  0.0000000000000000  3.0561650454588802
  0.9420995826002306  0.0000000000000000  1.7019932068513803
  2.3825379971898974  1.2155000000000000  0.9530590979377452
 -0.6484491445194175  1.2155000000000000  3.8050991543725150
  1.5900000000000001  0.0000000000000000  0.0000000000000000
  0.0000000000000000  0.0000000000000000  0.0000000000000000
