SYSTEM = OPT
PREC = Accurate 
ENCUT = 420
EDIFF = 1e-5
EDIFFG = -0.1
KSPACING = 0.3
IBRION = 2
ISIF = 3
NSW = 300
ISMEAR = 0
SIGMA = 0.05
POTIM = 0.05
ISTART = 0
LWAVE = FALSE
LCHARG = FALSE
PSTRESS = xxx
NPAR = 4
