 2x2x2 supercell
        5.347704112632
     2.02205122487993     0.00000000000000     0.00000000000000 
     0.00000000000000     2.00227759255933     0.00000000000000 
     0.00000000000000     0.00000000000000     2.00000000000000 
  La Y Ce Th Be H
  8 8 8 8 32 256
 Direct coordinates
   0.00000000000000   0.25000000000000   0.00000000000000  site   1 species 1: La
   0.00000000000000   0.25000000000000   0.50000000000000  site   2 species 1: La
   0.00000000000000   0.75000000000000   0.00000000000000  site   3 species 1: La
   0.00000000000000   0.75000000000000   0.50000000000000  site   4 species 1: La
   0.50000000000000   0.25000000000000   0.00000000000000  site   5 species 1: La
   0.50000000000000   0.25000000000000   0.50000000000000  site   6 species 1: La
   0.50000000000000   0.75000000000000   0.00000000000000  site   7 species 1: La
   0.50000000000000   0.75000000000000   0.50000000000000  site   8 species 1: La
   0.00000000000000   0.00000000000000   0.25000000000000  site   9 species 2: Y 
   0.00000000000000   0.00000000000000   0.75000000000000  site  10 species 2: Y 
   0.00000000000000   0.50000000000000   0.25000000000000  site  11 species 2: Y 
   0.00000000000000   0.50000000000000   0.75000000000000  site  12 species 2: Y 
   0.50000000000000   0.00000000000000   0.25000000000000  site  13 species 2: Y 
   0.50000000000000   0.00000000000000   0.75000000000000  site  14 species 2: Y 
   0.50000000000000   0.50000000000000   0.25000000000000  site  15 species 2: Y 
   0.50000000000000   0.50000000000000   0.75000000000000  site  16 species 2: Y 
   0.25000000000000   0.25000000000000   0.25000000000000  site  17 species 3: Ce
   0.25000000000000   0.25000000000000   0.75000000000000  site  18 species 3: Ce
   0.25000000000000   0.75000000000000   0.25000000000000  site  19 species 3: Ce
   0.25000000000000   0.75000000000000   0.75000000000000  site  20 species 3: Ce
   0.75000000000000   0.25000000000000   0.25000000000000  site  21 species 3: Ce
   0.75000000000000   0.25000000000000   0.75000000000000  site  22 species 3: Ce
   0.75000000000000   0.75000000000000   0.25000000000000  site  23 species 3: Ce
   0.75000000000000   0.75000000000000   0.75000000000000  site  24 species 3: Ce
   0.25000000000000   0.00000000000000   0.00000000000000  site  25 species 4: Th
   0.25000000000000   0.00000000000000   0.50000000000000  site  26 species 4: Th
   0.25000000000000   0.50000000000000   0.00000000000000  site  27 species 4: Th
   0.25000000000000   0.50000000000000   0.50000000000000  site  28 species 4: Th
   0.75000000000000   0.00000000000000   0.00000000000000  site  29 species 4: Th
   0.75000000000000   0.00000000000000   0.50000000000000  site  30 species 4: Th
   0.75000000000000   0.50000000000000   0.00000000000000  site  31 species 4: Th
   0.75000000000000   0.50000000000000   0.50000000000000  site  32 species 4: Th
   0.00000000000000   0.00000000000000   0.00000000000000  site  33 species 5: Be
   0.00000000000000   0.00000000000000   0.50000000000000  site  34 species 5: Be
   0.00000000000000   0.50000000000000   0.00000000000000  site  35 species 5: Be
   0.00000000000000   0.50000000000000   0.50000000000000  site  36 species 5: Be
   0.50000000000000   0.00000000000000   0.00000000000000  site  37 species 5: Be
   0.50000000000000   0.00000000000000   0.50000000000000  site  38 species 5: Be
   0.50000000000000   0.50000000000000   0.00000000000000  site  39 species 5: Be
   0.50000000000000   0.50000000000000   0.50000000000000  site  40 species 5: Be
   0.00000000000000   0.25000000000000   0.25000000000000  site  41 species 5: Be
   0.00000000000000   0.25000000000000   0.75000000000000  site  42 species 5: Be
   0.00000000000000   0.75000000000000   0.25000000000000  site  43 species 5: Be
   0.00000000000000   0.75000000000000   0.75000000000000  site  44 species 5: Be
   0.50000000000000   0.25000000000000   0.25000000000000  site  45 species 5: Be
   0.50000000000000   0.25000000000000   0.75000000000000  site  46 species 5: Be
   0.50000000000000   0.75000000000000   0.25000000000000  site  47 species 5: Be
   0.50000000000000   0.75000000000000   0.75000000000000  site  48 species 5: Be
   0.25000000000000   0.00000000000000   0.25000000000000  site  49 species 5: Be
   0.25000000000000   0.00000000000000   0.75000000000000  site  50 species 5: Be
   0.25000000000000   0.50000000000000   0.25000000000000  site  51 species 5: Be
   0.25000000000000   0.50000000000000   0.75000000000000  site  52 species 5: Be
   0.75000000000000   0.00000000000000   0.25000000000000  site  53 species 5: Be
   0.75000000000000   0.00000000000000   0.75000000000000  site  54 species 5: Be
   0.75000000000000   0.50000000000000   0.25000000000000  site  55 species 5: Be
   0.75000000000000   0.50000000000000   0.75000000000000  site  56 species 5: Be
   0.25000000000000   0.25000000000000   0.00000000000000  site  57 species 5: Be
   0.25000000000000   0.25000000000000   0.50000000000000  site  58 species 5: Be
   0.25000000000000   0.75000000000000   0.00000000000000  site  59 species 5: Be
   0.25000000000000   0.75000000000000   0.50000000000000  site  60 species 5: Be
   0.75000000000000   0.25000000000000   0.00000000000000  site  61 species 5: Be
   0.75000000000000   0.25000000000000   0.50000000000000  site  62 species 5: Be
   0.75000000000000   0.75000000000000   0.00000000000000  site  63 species 5: Be
   0.75000000000000   0.75000000000000   0.50000000000000  site  64 species 5: Be
   0.42385803167950   0.42595113670772   0.42310660266123  site  65 species 6: H 
   0.42385803167950   0.42595113670772   0.92310660266123  site  66 species 6: H 
   0.42385803167950   0.92595113670772   0.42310660266123  site  67 species 6: H 
   0.42385803167950   0.92595113670772   0.92310660266123  site  68 species 6: H 
   0.92385803167950   0.42595113670772   0.42310660266123  site  69 species 6: H 
   0.92385803167950   0.42595113670772   0.92310660266123  site  70 species 6: H 
   0.92385803167950   0.92595113670772   0.42310660266123  site  71 species 6: H 
   0.92385803167950   0.92595113670772   0.92310660266123  site  72 species 6: H 
   0.07614196832050   0.07404886329228   0.07689339733877  site  73 species 6: H 
   0.07614196832050   0.07404886329228   0.57689339733877  site  74 species 6: H 
   0.07614196832050   0.57404886329228   0.07689339733877  site  75 species 6: H 
   0.07614196832050   0.57404886329228   0.57689339733877  site  76 species 6: H 
   0.57614196832050   0.07404886329228   0.07689339733877  site  77 species 6: H 
   0.57614196832050   0.07404886329228   0.57689339733877  site  78 species 6: H 
   0.57614196832050   0.57404886329228   0.07689339733877  site  79 species 6: H 
   0.57614196832050   0.57404886329228   0.57689339733877  site  80 species 6: H 
   0.07614196832050   0.07404886329228   0.42310660266123  site  81 species 6: H 
   0.07614196832050   0.07404886329228   0.92310660266123  site  82 species 6: H 
   0.07614196832050   0.57404886329228   0.42310660266123  site  83 species 6: H 
   0.07614196832050   0.57404886329228   0.92310660266123  site  84 species 6: H 
   0.57614196832050   0.07404886329228   0.42310660266123  site  85 species 6: H 
   0.57614196832050   0.07404886329228   0.92310660266123  site  86 species 6: H 
   0.57614196832050   0.57404886329228   0.42310660266123  site  87 species 6: H 
   0.57614196832050   0.57404886329228   0.92310660266123  site  88 species 6: H 
   0.42385803167950   0.42595113670772   0.07689339733877  site  89 species 6: H 
   0.42385803167950   0.42595113670772   0.57689339733877  site  90 species 6: H 
   0.42385803167950   0.92595113670772   0.07689339733877  site  91 species 6: H 
   0.42385803167950   0.92595113670772   0.57689339733877  site  92 species 6: H 
   0.92385803167950   0.42595113670772   0.07689339733877  site  93 species 6: H 
   0.92385803167950   0.42595113670772   0.57689339733877  site  94 species 6: H 
   0.92385803167950   0.92595113670772   0.07689339733877  site  95 species 6: H 
   0.92385803167950   0.92595113670772   0.57689339733877  site  96 species 6: H 
   0.07614196832050   0.42595113670772   0.07689339733877  site  97 species 6: H 
   0.07614196832050   0.42595113670772   0.57689339733877  site  98 species 6: H 
   0.07614196832050   0.92595113670772   0.07689339733877  site  99 species 6: H 
   0.07614196832050   0.92595113670772   0.57689339733877  site 100 species 6: H 
   0.57614196832050   0.42595113670772   0.07689339733877  site 101 species 6: H 
   0.57614196832050   0.42595113670772   0.57689339733877  site 102 species 6: H 
   0.57614196832050   0.92595113670772   0.07689339733877  site 103 species 6: H 
   0.57614196832050   0.92595113670772   0.57689339733877  site 104 species 6: H 
   0.42385803167950   0.07404886329228   0.42310660266123  site 105 species 6: H 
   0.42385803167950   0.07404886329228   0.92310660266123  site 106 species 6: H 
   0.42385803167950   0.57404886329228   0.42310660266123  site 107 species 6: H 
   0.42385803167950   0.57404886329228   0.92310660266123  site 108 species 6: H 
   0.92385803167950   0.07404886329228   0.42310660266123  site 109 species 6: H 
   0.92385803167950   0.07404886329228   0.92310660266123  site 110 species 6: H 
   0.92385803167950   0.57404886329228   0.42310660266123  site 111 species 6: H 
   0.92385803167950   0.57404886329228   0.92310660266123  site 112 species 6: H 
   0.42385803167950   0.07404886329228   0.07689339733877  site 113 species 6: H 
   0.42385803167950   0.07404886329228   0.57689339733877  site 114 species 6: H 
   0.42385803167950   0.57404886329228   0.07689339733877  site 115 species 6: H 
   0.42385803167950   0.57404886329228   0.57689339733877  site 116 species 6: H 
   0.92385803167950   0.07404886329228   0.07689339733877  site 117 species 6: H 
   0.92385803167950   0.07404886329228   0.57689339733877  site 118 species 6: H 
   0.92385803167950   0.57404886329228   0.07689339733877  site 119 species 6: H 
   0.92385803167950   0.57404886329228   0.57689339733877  site 120 species 6: H 
   0.07614196832050   0.42595113670772   0.42310660266123  site 121 species 6: H 
   0.07614196832050   0.42595113670772   0.92310660266123  site 122 species 6: H 
   0.07614196832050   0.92595113670772   0.42310660266123  site 123 species 6: H 
   0.07614196832050   0.92595113670772   0.92310660266123  site 124 species 6: H 
   0.57614196832050   0.42595113670772   0.42310660266123  site 125 species 6: H 
   0.57614196832050   0.42595113670772   0.92310660266123  site 126 species 6: H 
   0.57614196832050   0.92595113670772   0.42310660266123  site 127 species 6: H 
   0.57614196832050   0.92595113670772   0.92310660266123  site 128 species 6: H 
   0.42110540654848   0.17528173757361   0.17745829450814  site 129 species 6: H 
   0.42110540654848   0.17528173757361   0.67745829450814  site 130 species 6: H 
   0.42110540654848   0.67528173757361   0.17745829450814  site 131 species 6: H 
   0.42110540654848   0.67528173757361   0.67745829450814  site 132 species 6: H 
   0.92110540654848   0.17528173757361   0.17745829450814  site 133 species 6: H 
   0.92110540654848   0.17528173757361   0.67745829450814  site 134 species 6: H 
   0.92110540654848   0.67528173757361   0.17745829450814  site 135 species 6: H 
   0.92110540654848   0.67528173757361   0.67745829450814  site 136 species 6: H 
   0.07889459345152   0.32471826242639   0.32254170549186  site 137 species 6: H 
   0.07889459345152   0.32471826242639   0.82254170549186  site 138 species 6: H 
   0.07889459345152   0.82471826242639   0.32254170549186  site 139 species 6: H 
   0.07889459345152   0.82471826242639   0.82254170549186  site 140 species 6: H 
   0.57889459345152   0.32471826242639   0.32254170549186  site 141 species 6: H 
   0.57889459345152   0.32471826242639   0.82254170549186  site 142 species 6: H 
   0.57889459345152   0.82471826242639   0.32254170549186  site 143 species 6: H 
   0.57889459345152   0.82471826242639   0.82254170549186  site 144 species 6: H 
   0.07889459345152   0.32471826242639   0.17745829450814  site 145 species 6: H 
   0.07889459345152   0.32471826242639   0.67745829450814  site 146 species 6: H 
   0.07889459345152   0.82471826242639   0.17745829450814  site 147 species 6: H 
   0.07889459345152   0.82471826242639   0.67745829450814  site 148 species 6: H 
   0.57889459345152   0.32471826242639   0.17745829450814  site 149 species 6: H 
   0.57889459345152   0.32471826242639   0.67745829450814  site 150 species 6: H 
   0.57889459345152   0.82471826242639   0.17745829450814  site 151 species 6: H 
   0.57889459345152   0.82471826242639   0.67745829450814  site 152 species 6: H 
   0.42110540654848   0.17528173757361   0.32254170549186  site 153 species 6: H 
   0.42110540654848   0.17528173757361   0.82254170549186  site 154 species 6: H 
   0.42110540654848   0.67528173757361   0.32254170549186  site 155 species 6: H 
   0.42110540654848   0.67528173757361   0.82254170549186  site 156 species 6: H 
   0.92110540654848   0.17528173757361   0.32254170549186  site 157 species 6: H 
   0.92110540654848   0.17528173757361   0.82254170549186  site 158 species 6: H 
   0.92110540654848   0.67528173757361   0.32254170549186  site 159 species 6: H 
   0.92110540654848   0.67528173757361   0.82254170549186  site 160 species 6: H 
   0.07889459345152   0.17528173757361   0.32254170549186  site 161 species 6: H 
   0.07889459345152   0.17528173757361   0.82254170549186  site 162 species 6: H 
   0.07889459345152   0.67528173757361   0.32254170549186  site 163 species 6: H 
   0.07889459345152   0.67528173757361   0.82254170549186  site 164 species 6: H 
   0.57889459345152   0.17528173757361   0.32254170549186  site 165 species 6: H 
   0.57889459345152   0.17528173757361   0.82254170549186  site 166 species 6: H 
   0.57889459345152   0.67528173757361   0.32254170549186  site 167 species 6: H 
   0.57889459345152   0.67528173757361   0.82254170549186  site 168 species 6: H 
   0.42110540654848   0.32471826242639   0.17745829450814  site 169 species 6: H 
   0.42110540654848   0.32471826242639   0.67745829450814  site 170 species 6: H 
   0.42110540654848   0.82471826242639   0.17745829450814  site 171 species 6: H 
   0.42110540654848   0.82471826242639   0.67745829450814  site 172 species 6: H 
   0.92110540654848   0.32471826242639   0.17745829450814  site 173 species 6: H 
   0.92110540654848   0.32471826242639   0.67745829450814  site 174 species 6: H 
   0.92110540654848   0.82471826242639   0.17745829450814  site 175 species 6: H 
   0.92110540654848   0.82471826242639   0.67745829450814  site 176 species 6: H 
   0.42110540654848   0.32471826242639   0.32254170549186  site 177 species 6: H 
   0.42110540654848   0.32471826242639   0.82254170549186  site 178 species 6: H 
   0.42110540654848   0.82471826242639   0.32254170549186  site 179 species 6: H 
   0.42110540654848   0.82471826242639   0.82254170549186  site 180 species 6: H 
   0.92110540654848   0.32471826242639   0.32254170549186  site 181 species 6: H 
   0.92110540654848   0.32471826242639   0.82254170549186  site 182 species 6: H 
   0.92110540654848   0.82471826242639   0.32254170549186  site 183 species 6: H 
   0.92110540654848   0.82471826242639   0.82254170549186  site 184 species 6: H 
   0.07889459345152   0.17528173757361   0.17745829450814  site 185 species 6: H 
   0.07889459345152   0.17528173757361   0.67745829450814  site 186 species 6: H 
   0.07889459345152   0.67528173757361   0.17745829450814  site 187 species 6: H 
   0.07889459345152   0.67528173757361   0.67745829450814  site 188 species 6: H 
   0.57889459345152   0.17528173757361   0.17745829450814  site 189 species 6: H 
   0.57889459345152   0.17528173757361   0.67745829450814  site 190 species 6: H 
   0.57889459345152   0.67528173757361   0.17745829450814  site 191 species 6: H 
   0.57889459345152   0.67528173757361   0.67745829450814  site 192 species 6: H 
   0.17470977605250   0.42246536072244   0.17535228160968  site 193 species 6: H 
   0.17470977605250   0.42246536072244   0.67535228160968  site 194 species 6: H 
   0.17470977605250   0.92246536072244   0.17535228160968  site 195 species 6: H 
   0.17470977605250   0.92246536072244   0.67535228160968  site 196 species 6: H 
   0.67470977605250   0.42246536072244   0.17535228160968  site 197 species 6: H 
   0.67470977605250   0.42246536072244   0.67535228160968  site 198 species 6: H 
   0.67470977605250   0.92246536072244   0.17535228160968  site 199 species 6: H 
   0.67470977605250   0.92246536072244   0.67535228160968  site 200 species 6: H 
   0.32529022394750   0.07753463927756   0.32464771839032  site 201 species 6: H 
   0.32529022394750   0.07753463927756   0.82464771839032  site 202 species 6: H 
   0.32529022394750   0.57753463927756   0.32464771839032  site 203 species 6: H 
   0.32529022394750   0.57753463927756   0.82464771839032  site 204 species 6: H 
   0.82529022394750   0.07753463927756   0.32464771839032  site 205 species 6: H 
   0.82529022394750   0.07753463927756   0.82464771839032  site 206 species 6: H 
   0.82529022394750   0.57753463927756   0.32464771839032  site 207 species 6: H 
   0.82529022394750   0.57753463927756   0.82464771839032  site 208 species 6: H 
   0.32529022394750   0.07753463927756   0.17535228160968  site 209 species 6: H 
   0.32529022394750   0.07753463927756   0.67535228160968  site 210 species 6: H 
   0.32529022394750   0.57753463927756   0.17535228160968  site 211 species 6: H 
   0.32529022394750   0.57753463927756   0.67535228160968  site 212 species 6: H 
   0.82529022394750   0.07753463927756   0.17535228160968  site 213 species 6: H 
   0.82529022394750   0.07753463927756   0.67535228160968  site 214 species 6: H 
   0.82529022394750   0.57753463927756   0.17535228160968  site 215 species 6: H 
   0.82529022394750   0.57753463927756   0.67535228160968  site 216 species 6: H 
   0.17470977605250   0.42246536072244   0.32464771839032  site 217 species 6: H 
   0.17470977605250   0.42246536072244   0.82464771839032  site 218 species 6: H 
   0.17470977605250   0.92246536072244   0.32464771839032  site 219 species 6: H 
   0.17470977605250   0.92246536072244   0.82464771839032  site 220 species 6: H 
   0.67470977605250   0.42246536072244   0.32464771839032  site 221 species 6: H 
   0.67470977605250   0.42246536072244   0.82464771839032  site 222 species 6: H 
   0.67470977605250   0.92246536072244   0.32464771839032  site 223 species 6: H 
   0.67470977605250   0.92246536072244   0.82464771839032  site 224 species 6: H 
   0.32529022394750   0.42246536072244   0.32464771839032  site 225 species 6: H 
   0.32529022394750   0.42246536072244   0.82464771839032  site 226 species 6: H 
   0.32529022394750   0.92246536072244   0.32464771839032  site 227 species 6: H 
   0.32529022394750   0.92246536072244   0.82464771839032  site 228 species 6: H 
   0.82529022394750   0.42246536072244   0.32464771839032  site 229 species 6: H 
   0.82529022394750   0.42246536072244   0.82464771839032  site 230 species 6: H 
   0.82529022394750   0.92246536072244   0.32464771839032  site 231 species 6: H 
   0.82529022394750   0.92246536072244   0.82464771839032  site 232 species 6: H 
   0.17470977605250   0.07753463927756   0.17535228160968  site 233 species 6: H 
   0.17470977605250   0.07753463927756   0.67535228160968  site 234 species 6: H 
   0.17470977605250   0.57753463927756   0.17535228160968  site 235 species 6: H 
   0.17470977605250   0.57753463927756   0.67535228160968  site 236 species 6: H 
   0.67470977605250   0.07753463927756   0.17535228160968  site 237 species 6: H 
   0.67470977605250   0.07753463927756   0.67535228160968  site 238 species 6: H 
   0.67470977605250   0.57753463927756   0.17535228160968  site 239 species 6: H 
   0.67470977605250   0.57753463927756   0.67535228160968  site 240 species 6: H 
   0.17470977605250   0.07753463927756   0.32464771839032  site 241 species 6: H 
   0.17470977605250   0.07753463927756   0.82464771839032  site 242 species 6: H 
   0.17470977605250   0.57753463927756   0.32464771839032  site 243 species 6: H 
   0.17470977605250   0.57753463927756   0.82464771839032  site 244 species 6: H 
   0.67470977605250   0.07753463927756   0.32464771839032  site 245 species 6: H 
   0.67470977605250   0.07753463927756   0.82464771839032  site 246 species 6: H 
   0.67470977605250   0.57753463927756   0.32464771839032  site 247 species 6: H 
   0.67470977605250   0.57753463927756   0.82464771839032  site 248 species 6: H 
   0.32529022394750   0.42246536072244   0.17535228160968  site 249 species 6: H 
   0.32529022394750   0.42246536072244   0.67535228160968  site 250 species 6: H 
   0.32529022394750   0.92246536072244   0.17535228160968  site 251 species 6: H 
   0.32529022394750   0.92246536072244   0.67535228160968  site 252 species 6: H 
   0.82529022394750   0.42246536072244   0.17535228160968  site 253 species 6: H 
   0.82529022394750   0.42246536072244   0.67535228160968  site 254 species 6: H 
   0.82529022394750   0.92246536072244   0.17535228160968  site 255 species 6: H 
   0.82529022394750   0.92246536072244   0.67535228160968  site 256 species 6: H 
   0.17493752945324   0.17449195701517   0.42248528835237  site 257 species 6: H 
   0.17493752945324   0.17449195701517   0.92248528835237  site 258 species 6: H 
   0.17493752945324   0.67449195701517   0.42248528835237  site 259 species 6: H 
   0.17493752945324   0.67449195701517   0.92248528835237  site 260 species 6: H 
   0.67493752945324   0.17449195701517   0.42248528835237  site 261 species 6: H 
   0.67493752945324   0.17449195701517   0.92248528835237  site 262 species 6: H 
   0.67493752945324   0.67449195701517   0.42248528835237  site 263 species 6: H 
   0.67493752945324   0.67449195701517   0.92248528835237  site 264 species 6: H 
   0.32506247054676   0.32550804298483   0.07751471164763  site 265 species 6: H 
   0.32506247054676   0.32550804298483   0.57751471164763  site 266 species 6: H 
   0.32506247054676   0.82550804298483   0.07751471164763  site 267 species 6: H 
   0.32506247054676   0.82550804298483   0.57751471164763  site 268 species 6: H 
   0.82506247054676   0.32550804298483   0.07751471164763  site 269 species 6: H 
   0.82506247054676   0.32550804298483   0.57751471164763  site 270 species 6: H 
   0.82506247054676   0.82550804298483   0.07751471164763  site 271 species 6: H 
   0.82506247054676   0.82550804298483   0.57751471164763  site 272 species 6: H 
   0.32506247054676   0.32550804298483   0.42248528835237  site 273 species 6: H 
   0.32506247054676   0.32550804298483   0.92248528835237  site 274 species 6: H 
   0.32506247054676   0.82550804298483   0.42248528835237  site 275 species 6: H 
   0.32506247054676   0.82550804298483   0.92248528835237  site 276 species 6: H 
   0.82506247054676   0.32550804298483   0.42248528835237  site 277 species 6: H 
   0.82506247054676   0.32550804298483   0.92248528835237  site 278 species 6: H 
   0.82506247054676   0.82550804298483   0.42248528835237  site 279 species 6: H 
   0.82506247054676   0.82550804298483   0.92248528835237  site 280 species 6: H 
   0.17493752945324   0.17449195701517   0.07751471164763  site 281 species 6: H 
   0.17493752945324   0.17449195701517   0.57751471164763  site 282 species 6: H 
   0.17493752945324   0.67449195701517   0.07751471164763  site 283 species 6: H 
   0.17493752945324   0.67449195701517   0.57751471164763  site 284 species 6: H 
   0.67493752945324   0.17449195701517   0.07751471164763  site 285 species 6: H 
   0.67493752945324   0.17449195701517   0.57751471164763  site 286 species 6: H 
   0.67493752945324   0.67449195701517   0.07751471164763  site 287 species 6: H 
   0.67493752945324   0.67449195701517   0.57751471164763  site 288 species 6: H 
   0.32506247054676   0.17449195701517   0.07751471164763  site 289 species 6: H 
   0.32506247054676   0.17449195701517   0.57751471164763  site 290 species 6: H 
   0.32506247054676   0.67449195701517   0.07751471164763  site 291 species 6: H 
   0.32506247054676   0.67449195701517   0.57751471164763  site 292 species 6: H 
   0.82506247054676   0.17449195701517   0.07751471164763  site 293 species 6: H 
   0.82506247054676   0.17449195701517   0.57751471164763  site 294 species 6: H 
   0.82506247054676   0.67449195701517   0.07751471164763  site 295 species 6: H 
   0.82506247054676   0.67449195701517   0.57751471164763  site 296 species 6: H 
   0.17493752945324   0.32550804298483   0.42248528835237  site 297 species 6: H 
   0.17493752945324   0.32550804298483   0.92248528835237  site 298 species 6: H 
   0.17493752945324   0.82550804298483   0.42248528835237  site 299 species 6: H 
   0.17493752945324   0.82550804298483   0.92248528835237  site 300 species 6: H 
   0.67493752945324   0.32550804298483   0.42248528835237  site 301 species 6: H 
   0.67493752945324   0.32550804298483   0.92248528835237  site 302 species 6: H 
   0.67493752945324   0.82550804298483   0.42248528835237  site 303 species 6: H 
   0.67493752945324   0.82550804298483   0.92248528835237  site 304 species 6: H 
   0.17493752945324   0.32550804298483   0.07751471164763  site 305 species 6: H 
   0.17493752945324   0.32550804298483   0.57751471164763  site 306 species 6: H 
   0.17493752945324   0.82550804298483   0.07751471164763  site 307 species 6: H 
   0.17493752945324   0.82550804298483   0.57751471164763  site 308 species 6: H 
   0.67493752945324   0.32550804298483   0.07751471164763  site 309 species 6: H 
   0.67493752945324   0.32550804298483   0.57751471164763  site 310 species 6: H 
   0.67493752945324   0.82550804298483   0.07751471164763  site 311 species 6: H 
   0.67493752945324   0.82550804298483   0.57751471164763  site 312 species 6: H 
   0.32506247054676   0.17449195701517   0.42248528835237  site 313 species 6: H 
   0.32506247054676   0.17449195701517   0.92248528835237  site 314 species 6: H 
   0.32506247054676   0.67449195701517   0.42248528835237  site 315 species 6: H 
   0.32506247054676   0.67449195701517   0.92248528835237  site 316 species 6: H 
   0.82506247054676   0.17449195701517   0.42248528835237  site 317 species 6: H 
   0.82506247054676   0.17449195701517   0.92248528835237  site 318 species 6: H 
   0.82506247054676   0.67449195701517   0.42248528835237  site 319 species 6: H 
   0.82506247054676   0.67449195701517   0.92248528835237  site 320 species 6: H 
