La Y  Ce Th Be H                        
   1.00000000000000     
    -0.0151483645150415   -0.0195889872653596  -10.9236869076947318
     0.0086461703527678  -10.9141304590399955   -0.0195933407035817
   -10.9080748802039817    0.0087312829337840   -0.0151085389625139
   La   Y    Ce   Th   Be   H 
     8     8     8     8    32   256
Direct
  0.5003200951812050  0.4994403402639658  0.9997281241632402
  0.4993423368113991  0.5001331194247221  0.4992833065195849
  0.2486148637509706  0.2504782112091548  0.0029647117423879
  0.2503711964406676  0.7506298674334887  0.0019155302382415
  0.2478264310958884  0.0030815751804072  0.2498660777006785
  0.5032480196190041  0.2496836353007008  0.7550680396406758
  0.4975073735031457  0.7498538889610437  0.2503171924870617
  0.9988697070989537  0.2472664491551477  0.7495470439195557
  0.5000886150758471 -0.0028933224715394  0.4914640168071933
  0.0074022126786137  0.0075306736007821  0.0019347415363640
  0.7530751880842611  0.2418820100541509  0.0031035469315103
  0.7485170883353242  0.2474881212717424  0.5057323703757038
  0.7407019487771103  0.0049399236712031  0.2411898766726860
  0.2525330056201085  0.5058280572176581  0.2406814348460826
  0.4969320377738606  0.7424388686978751  0.7472634598074258
  0.9946263084081999  0.2471256501924414  0.2361348246415084
  0.5002225737799824  0.0001980844694303  0.0000293044983569
  0.0013370867078812  0.9975323977407051  0.5019871603025162
  0.0002320507374780  0.4969897122571169  0.0013167570444346
  0.9989554105179622  0.4974176348949009  0.4973827811549179
  0.2517529234690764  0.2518236906860424  0.5018988311983398
  0.2529289680650205  0.7525446860436859  0.5005576992937392
  0.2507472973838410  0.9991941285313055  0.7517318371836635
  0.0005011092196151  0.7498224219589721  0.2502292298813674
  0.7498963543047429  0.7526322109654955  0.0016865633983991
  0.7469996993106851  0.7520826250280761  0.4996453915345108
  0.7471672034668735  0.0031237069240401  0.7493039560392160
  0.7478873362565036  0.4981144503219325  0.7503430756905115
  0.7497845216259773  0.4991285050470317  0.2502158758097192
  0.2503327477481311  0.4999117798035629  0.7504413501057321
  0.5045225568502613  0.2472771778875186  0.2485423685511221
  0.0001211182372855  0.7493461343687209  0.7513687199213807
  0.2503757408362473  0.2574097852455329  0.2489329138900098
  0.2496054539753836  0.2489448986374775  0.7510236393475744
  0.2494277091308113  0.7489228240947976  0.2503269372575700
  0.2511390004019086  0.7510330898325797  0.7502756242752586
  0.7552700734365116  0.2478264221122188  0.2544921725540059
  0.7504724146306750  0.2486615290561685  0.7489637274508030
  0.7502898446249076  0.7545991392699998  0.2508550795073214
  0.7467222762006392  0.7503982847075805  0.7500422068780996
  0.4986170360171497  0.5013019695533405  0.2502838688251232
  0.5004235857116167  0.4993853778358726  0.7497711331917472
  0.5003729436106189  0.0011934449751507  0.2524499896208972
  0.4986192383512032  0.9974131737654535  0.7485835567679849
  0.0014580615485919  0.4966294003761392  0.2499287109493460
  0.9987630311541823  0.4984671517104325  0.7498384731000579
  0.9971043622272554  0.0022681105264940  0.2485722893545617
 -0.0000002211665605  0.0014077747401362  0.7534261142981430
  0.5016768271041822  0.2491073914612540  0.0011133641488165
  0.5058109434026570  0.2441817827990370  0.5009297195397376
  0.4986397070108872  0.7505163286784651  0.9990784266500512
  0.4992680922678217  0.7521967438004069  0.5010875510998481
  0.9992878700587664  0.2481935751666568  0.0003650542185396
  0.9991194456979569  0.2467391723059628  0.4942865294503276
  0.0008287437728547  0.7529152329435467  0.0013151134402842
  0.0017402946617496  0.7478031807339357  0.4988531183517732
  0.2493078768975563  0.5003264647957341  0.0020238463173140
  0.2479557316138976  0.5026682415731590  0.4968788063701196
  0.2483635316687370 -0.0000210187751387  0.0009803553048808
  0.2508247806212919  0.0017141646823381  0.5009748319742644
  0.7502555196479822  0.4975828058847354  0.0003060865129441
  0.7493579646884707  0.4975308175306591  0.4998017330163202
  0.7537262215206154  0.0016918982645041  0.0014680554258878
  0.7462103423936729  0.0039618976456034  0.4982098605493516
  0.1598044554262802  0.1915314735751521  0.3371017096404295
  0.1747900556242294  0.1695408844562100  0.8208882134339520
  0.1721699750474575  0.6803695961612586  0.3335709303172605
  0.1724191640397531  0.6792391090555228  0.8245918774371503
  0.6737470382259405  0.1867813579614942  0.3362503131011273
  0.6748336047511276  0.1808309208528708  0.8294017451549484
  0.6783328116346610  0.6737192120318147  0.3249882175086323
  0.6724781737017659  0.6779456456632498  0.8278453213070842
  0.3374583015130206  0.3368782209119149  0.2015845785014697
  0.3218253791869222  0.3296941432033643  0.6693355009684828
  0.3191431889875278  0.8292767259546840  0.1791140919180499
  0.3248205593254211  0.8265974629765178  0.6713319773223361
  0.8226878208769656  0.3268696035737176  0.1776077313763675
  0.8229630349916077  0.3260890619146722  0.6734263528416243
  0.8314059674287676  0.8285380322276309  0.1764283131452807
  0.8250387570579203  0.8282096910667684  0.6787255707154556
  0.1751450369863401  0.3348625376523797  0.1856705316079679
  0.1759046469395225  0.3241102032013417  0.6713729528590179
  0.1658194243054123  0.8292838622635955  0.1849498370830353
  0.1793701769406202  0.8309677361680271  0.6725615036488495
  0.6780257635998230  0.3259296856682969  0.1798554428341237
  0.6742230526162215  0.3268818267837369  0.6768685280100577
  0.6796341469262105  0.8302973638159881  0.1749509205184671
  0.6700716116490294  0.8270597187465341  0.6779374116452304
  0.3018582132471598  0.1728785350381331  0.3371255069192310
  0.3295277859371719  0.1692145065779969  0.8098654109753196
  0.3175951749045721  0.6771169512888648  0.3347792827863466
  0.3278293828808973  0.6770818363910781  0.8207836067565332
  0.8364738905025167  0.1921390291380688  0.3359645738638664
  0.8242145245428975  0.1772209540702229  0.8310785178883802
  0.8281426747121581  0.6738183210089483  0.3222770232343203
  0.8248028539110404  0.6789284861742330  0.8286189670153280
  0.3260329133935583  0.1765299499210039  0.1811420920765411
  0.3467725451480793  0.1920563600262270  0.6533376813292389
  0.3229270900228388  0.6713013358573682  0.1807314541635237
  0.3257511313073406  0.6814006605838355  0.6677394045001381
  0.8294181614258170  0.1797944085278159  0.1719787828425731
  0.8248535739529667  0.1738778046386678  0.6720226973204727
  0.8300994651648499  0.6776491947142165  0.1759580534859650
  0.8255188084778454  0.6756184676654152  0.6745199132709719
  0.2210109200281071  0.3431015269788192  0.3399024426613657
  0.1747913068354354  0.3246459769321495  0.8227956885817435
  0.1751312698735794  0.8252154153193605  0.3278964383032518
  0.1732139016933030  0.8315597850898525  0.8214814001096207
  0.6765815785513946  0.3259930980006636  0.3304428367343515
  0.6774440614463292  0.3243296771982204  0.8256597498220321
  0.6760998420696965  0.8286017352058377  0.3264301337447215
  0.6756569901965976  0.8269649473136905  0.8259741952476574
  0.3481275692481422  0.3069401414300602  0.3494293209625805
  0.3261994473805705  0.3289728513042959  0.8184534892014430
  0.3155273791440508  0.8273375607174213  0.3328358467312224
  0.3251095373968863  0.8293814514979815  0.8200306370927074
  0.8185114528643157  0.3319851374151379  0.3308673764795581
  0.8204145579988015  0.3235545462609295  0.8271652165129691
  0.8270291460439649  0.8290042642935023  0.3235538066782790
  0.8257867848994368  0.8270245157024914  0.8274469523688983
  0.1657499564746017  0.1750686355268487  0.1969498016024654
  0.1929467652124857  0.1686358933360093  0.6665282281707255
  0.1661760689737908  0.6783430353171946  0.1804119761112997
  0.1756443601970449  0.6804811264098295  0.6689614400541001
  0.6796677232151515  0.1764488942247568  0.1769856145825670
  0.6684872207541795  0.1809341557816790  0.6687356438221235
  0.6796032996857672  0.6742425099709733  0.1755750035781720
  0.6698442892300130  0.6766656533599524  0.6770162989204264
  0.4269169968508250  0.4239039686257678  0.3205603758620472
  0.4241800107091576  0.4238947949967191  0.8263449944635979
  0.4217637302679416  0.9236593698877298  0.3169157089512802
  0.4232662459429353  0.9254192725982481  0.8294105869074675
  0.9178577809468694  0.4239662530537932  0.3256420898781608
  0.9262835492685028  0.4225243364441423  0.8257756483835151
  0.9359968135955563  0.9161572025698083  0.3316687605141177
  0.9244814261819105  0.9216842272889706  0.8186595134476071
  0.0725380501698210  0.0679545233399503  0.1703714262364035
  0.0803332657382861  0.0672414136445350  0.6715532849916439
  0.0753004574658171  0.5746627843825832  0.1786826833242611
  0.0725396644656010  0.5730820568075400  0.6717821867690005
  0.5733147961885885  0.0722332784219843  0.1686025151639823
  0.5745238605276713  0.0747552235295100  0.6721791085535055
  0.5756698390778437  0.5712177574940794  0.1723146943226159
  0.5749384297411091  0.5740224059635172  0.6749134326446997
  0.4255192719329755  0.0710178586549731  0.1684464100367864
  0.4158629883549367  0.0688394572145304  0.6801329453065882
  0.4231438330139810  0.5670866348719628  0.1705332927981684
  0.4240049464971090  0.5758533420289150  0.6781043116757490
  0.9107545566762831  0.0787591829228800  0.1991257536543170
  0.9269956733832824  0.0707907513131603  0.6683451732577544
  0.9251901178455330  0.5740812989292323  0.1764631822314845
  0.9238536554440284  0.5712336504719886  0.6703094685867795
  0.0716051207857710  0.4176328766014782  0.3197993881728501
  0.0733308989162165  0.4238379099642063  0.8255064746836139
  0.0728770531728815  0.9184231044043446  0.3217504692484069
  0.0748194320633089  0.9205561296450865  0.8208741139514217
  0.5809339747436185  0.4211081078897429  0.3207144744634118
  0.5733993787282722  0.4207108923846832  0.8280327827317283
  0.5751270205738314  0.9226825373956871  0.3195133463095644
  0.5686302940866643  0.9222237444571117  0.8274909150679151
  0.0704297279890086  0.4234184752436064  0.1687277105864715
  0.0716254177335727  0.4244252485649544  0.6725420473123186
  0.0741711417953176  0.9159944472219765  0.1840681465301924
  0.0660217051764195  0.9211187830668421  0.6727106634085083
  0.5744266731773705  0.4219771687247834  0.1741864820960445
  0.5765365520611332  0.4197882692536131  0.6758412872224028
  0.5681986074479506  0.9263507901671271  0.1715379652116580
  0.5736949700234594  0.9235615914100131  0.6760185840488989
  0.4235629241971327  0.0760873504453743  0.3245973312335739
  0.4190169979683265  0.0683922156438429  0.8332541898306316
  0.4227885763315993  0.5746086262715437  0.3232235491353002
  0.4231153863063963  0.5713327775138889  0.8276733892635020
  0.9003393983158476  0.0452628168837877  0.3465994751422739
  0.9246668522730503  0.0727031464125651  0.8282774960833895
  0.9246582000591356  0.5742069189595703  0.3267447683020937
  0.9248199993597166  0.5738179298451180  0.8264323052302499
  0.0621864743748186  0.0765192785796385  0.3321768528045344
  0.0811014327335373  0.0677439021525016  0.8279567584054273
  0.0699575091938097  0.5786387052734697  0.3270793110729984
  0.0741924914491885  0.5728753668886503  0.8266387981849509
  0.5829612845082539  0.0729005065488714  0.3258382373142362
  0.5691966514889387  0.0749488678376978  0.8303696555065183
  0.5787186299416343  0.5708766246054957  0.3248706402164700
  0.5725530488672838  0.5740479389099666  0.8277220106768407
  0.4313824081333181  0.4216057142635959  0.1710127521985153
  0.4257251001048560  0.4218600069385665  0.6774492814857572
  0.4253850932509451  0.9322271447400118  0.1718449488520890
  0.4204623373903109  0.9170063251923977  0.6864235476556826
  0.9224851120492554  0.4216565302431161  0.1768872304698368
  0.9261686881478026  0.4229530840307314  0.6710291803883558
  0.9245923454853417  0.9171702939026966  0.1874876525656792
  0.9269092688517132  0.9262699890594644  0.6697627878726073
  0.4245350453186347  0.1719701930101964  0.0759047956485775
  0.4113408277515828  0.1859954033027183  0.5921016073488526
  0.4241050346554328  0.6771800077992661  0.0756111303933639
  0.4208901204716202  0.6786663602199655  0.5740454054138795
  0.9225137359488488  0.1747680821305121  0.0754915760205596
  0.9248389979517455  0.1716879755012997  0.5641423630618906
  0.9248619680826773  0.6790734602588592  0.0795517261793062
  0.9254160477104486  0.6743796593430619  0.5735958126697940
  0.0943555220371111  0.3427706676631765  0.4304368730462724
  0.0714383495985488  0.3282618034231890  0.9270966592157360
  0.0741922199905263  0.8247520856925059  0.4201410425654900
  0.0720453329026710  0.8301759310873985  0.9277150251420014
  0.5490932989928133  0.3283905993220766  0.4158009737582767
  0.5808606584851610  0.3177463048523776  0.9278188181596108
  0.5706587788156181  0.8313273315677316  0.4243651509188205
  0.5763468050090030  0.8293414220778553  0.9282090188432940
  0.4065530993998580  0.3207901563765788  0.4093421118139220
  0.4227074980102823  0.3212491955447352  0.9287815205213534
  0.4208087733237489  0.8273936052352749  0.4275412716766764
  0.4327400114317979  0.8304537329094481  0.9214728918641747
  0.9472057663418674  0.3299646239494204  0.4148353520133108
  0.9241741403914716  0.3268364816216912  0.9282678285653950
  0.9292103304938673  0.8340492354711275  0.4193912162779487
  0.9221563334879953  0.8267139898934510  0.9284415091279656
  0.0763881438074865  0.1805559351967565  0.0803008896239518
  0.0818999470065512  0.1695013865865090  0.5541311859734317
  0.0718888729260538  0.6765808496809733  0.0817031777136918
  0.0823117129615730  0.6713710642013880  0.5674147600146767
  0.5780988474143954  0.1697000229048624  0.0723610135365790
  0.5247959440837876  0.1529121967446362  0.5902188476306010
  0.5782556243761295  0.6804222249179952  0.0742864831593971
  0.5719496772332253  0.6798285312298430  0.5784600975383886
  0.1025910065331913  0.2207722029515014  0.3937499469693447
  0.0746383950934697  0.1763581679876979  0.9254343045232355
  0.0821098430679183  0.6746257142830810  0.4178043985389142
  0.0727818780998697  0.6705981547329655  0.9299510258548573
  0.5811952733776892  0.1639299642800088  0.4365416586120995
  0.5773120365920579  0.1713089362485904  0.9284657388476917
  0.5729960168621969  0.6781697389433595  0.4241073265448987
  0.5784033283223722  0.6855299072997496  0.9200241098837738
  0.4224493380318437  0.3214742031125803  0.0789767171639317
  0.4182037257835057  0.3272949025962794  0.5521186981396329
  0.4281720919543414  0.8321006591899309  0.0757330012620970
  0.4233346814034067  0.8292219255778808  0.5720835367458748
  0.9254426546791107  0.3285164375606792  0.0713560326987066
  0.9258875222330426  0.3231515683239760  0.5714431978348526
  0.9254215269074306  0.8301601742849657  0.0771318297494978
  0.9246488700097748  0.8280548810360937  0.5675993346624241
  0.0742982969737217  0.3289979386353099  0.0759350850701656
  0.0738456016237561  0.3237658165805304  0.5719496853040094
  0.0669977905845251  0.8299940992418136  0.0813498175075377
  0.0790652879701702  0.8252578131400712  0.5706710713714637
  0.5803600655446222  0.3190394932782892  0.0753308248394294
  0.5777915080310204  0.3172696845237168  0.5710636061034982
  0.5745641895934401  0.8313748443380706  0.0747409440515067
  0.5674766672027360  0.8331974073312929  0.5748051841224167
  0.4183376316158125  0.1710153903282949  0.4370655104881810
  0.4260468740089470  0.1715028577119136  0.9283848091874476
  0.4183214357871739  0.6785535748085082  0.4276501263148842
  0.4286540870164790  0.6800190023290190  0.9181238104555217
  0.9644837021538299  0.1620642259070633  0.4056098773704579
  0.9193047860114177  0.1822304692067790  0.9266193296209604
  0.9244108912544353  0.6827586807557160  0.4189720181043805
  0.9232298088001295  0.6729238203498242  0.9301787444386883
  0.1699335869872855  0.4237510890999620  0.0716280139484806
  0.1720218693093121  0.4234888884012046  0.5737026142289831
  0.1746735835107008  0.9237712541625137  0.0733462866810240
  0.1747426261100412  0.9282553082622140  0.5797972325157799
  0.6789831007499354  0.4214232242047754  0.0772707297937813
  0.6824188085934416  0.4186909047193463  0.5748685866929713
  0.6712221568516679  0.9246627922521614  0.0710294747037696
  0.6779751673565017  0.9238186319482847  0.5787604587564013
  0.3255261357540517  0.0754412381178291  0.4267171934067793
  0.3292139676323750  0.0706684792991004  0.9207026597044984
  0.3165265719456377  0.5792010458162423  0.4212914761028874
  0.3236033670353186  0.5738838217479931  0.9231936206877012
  0.8409386728957519  0.0630015056160643  0.4066332748632746
  0.8227373305542863  0.0755342101057739  0.9223314806753521
  0.8314816487960959  0.5701353612961606  0.4237035241243494
  0.8292059278164443  0.5725775311997490  0.9257595008320976
  0.1678671972393578  0.0795744444725726  0.4326560279126448
  0.1857211590023044  0.0774789535964609  0.9161712177205336
  0.1604955023046687  0.5408211642702028  0.4101778795604086
  0.1718015347526649  0.5713275723157235  0.9236225973395149
  0.7138630973368931  0.0863659219044055  0.4086075913774438
  0.6693340286388244  0.0697680043613608  0.9247736223215617
  0.6782217175904256  0.5759012046254633  0.4226040911295967
  0.6768629653626209  0.5782797650299012  0.9250092041501230
  0.3222844645774983  0.4222937160041680  0.0745136694241227
  0.3190931028512789  0.4227682094204863  0.5787129051880063
  0.3308083444582547  0.9259421746269755  0.0706746632401052
  0.3238331026377139  0.9236756607405372  0.5777793605704781
  0.8273903250474560  0.4214100669723643  0.0738638865279806
  0.8348794963044470  0.4181024910204936  0.5617207945110020
  0.8284939422918456  0.9243207628195067  0.0730189045911983
  0.8272620119129835  0.9271791104958315  0.5787952599404690
  0.3163827265164498  0.4255006700628714  0.4246362705732425
  0.3199641491334133  0.4233244750496436  0.9233257889441870
  0.3258675412181006  0.9256350848475194  0.4264594799702962
  0.3290870051294318  0.9285241632150332  0.9220059641640378
  0.8305915961682223  0.4209002128028368  0.4262395807792680
  0.8296158795678662  0.4210430249813528  0.9278963470032229
  0.8306943170396337  0.9210064220945279  0.4403197855981404
  0.8206137482262129  0.9251602346313019  0.9195671364514012
  0.1743501032590083  0.0793727062497530  0.0714638782427299
  0.1695415727722109  0.0721850244132499  0.5849474579940627
  0.1696406722269785  0.5728951404173719  0.0748258428056791
  0.1678882648870118  0.5740745131322219  0.5718164026212825
  0.6710162198713830  0.0732596979854216  0.0721342088610549
  0.6706935238772612  0.0796251204220650  0.5689818712567684
  0.6763070691303326  0.5770006582189875  0.0770243542501821
  0.6770390248372671  0.5764272127804627  0.5753126091593702
  0.3304593020855842  0.0747649675936302  0.0677589560442144
  0.3244149030184054  0.0696726009874468  0.5813986524499999
  0.3251597264409549  0.5750422415651708  0.0738530164910088
  0.3207981464517349  0.5739454207846184  0.5764504487405286
  0.8278095878453705  0.0747386855562250  0.0760680179682770
  0.8346962795972686  0.0790817764387138  0.5568576688455411
  0.8287880033454184  0.5728725712323424  0.0762669025350657
  0.8323499153911368  0.5689496870812331  0.5725877299965211
  0.1569661166625647  0.4070183561000960  0.4283168224014495
  0.1738482505344191  0.4243225865216705  0.9245198931977817
  0.1735230156245701  0.9252140929645778  0.4287208426274861
  0.1821064376880545  0.9250595205396319  0.9179660690787484
  0.6808780734829044  0.4190263256187260  0.4234358854691673
  0.6804333248559810  0.4202493546884462  0.9253951889454447
  0.6775273855950845  0.9270075147118990  0.4234158344181806
  0.6690275878482079  0.9253981836800357  0.9250131334980296
