SYSTEM = OPT
PREC = Normal
ENCUT = 420
EDIFF = 1e-4
EDIFFG = -0.2

KSPACING = 0.3
IBRION = 2
ISIF = 3
NSW = 200
ISMEAR = 0
SIGMA = 0.05
POTIM = 0.01
ISTART = 0
LWAVE = FALSE
LCHARG = FALSE
PSTRESS = XXXX
NPAR = 4
