SYSTEM = OPT
PREC = Accurate 
ENCUT = 500
EDIFF = 1e-6
EDIFFG = -0.1
KSPACING = 0.3
IBRION = 2
ISIF = 3
NSW = 300
ISMEAR = 0
SIGMA = 0.05
POTIM = 0.01
ISTART = 0
LWAVE = FALSE
LCHARG = FALSE
PSTRESS = 2000
NPAR = 4
