SYSTEM = OPT
PREC = Accurate 
ENCUT = 550
EDIFF = 1e-5
EDIFFG = -0.1
IBRION = 2
ISIF = 3
NSW = 300
ISMEAR = 0
SIGMA = 0.05
POTIM = 0.10
LWAVE = FALSE
LCHARG = FALSE
NPAR = 4
