SYSTEM = OPT
PREC = LOW
ENCUT = 350
EDIFF = 3e-2
IBRION = 2
ISIF = 2
KSPACING = 0.8
NSW = 100
ISMEAR = 0
SIGMA = 0.05
POTIM = 0.3
LWAVE = FALSE
LCHARG = FALSE
ISTART = 0
PSTRESS = 2000
NPAR = 4
