&CONTROL
 calculation='scf',              
 restart_mode='from_scratch',    
 prefix='Ca1H6',                    
 pseudo_dir='/work/home/mayuan/code/my_script/scripts_tests/out2/200.0/pp',                
 outdir='./tmp',                 
 forc_conv_thr = 1.0d-3,         
 etot_conv_thr = 1.0d-4,         
/
&SYSTEM
 ibrav=0,                        
 nat=7,                         
 ntyp=2,                        
 occupations = 'smearing',       
 smearing = 'methfessel-paxton'  
 degauss = 0.02                  
 ecutwfc = 60,                   
 ecutrho = 720,                  
/
&ELECTRONS
 conv_thr = 1.0d-9,              
 mixing_beta = 0.8d0,            
/
ATOMIC_SPECIES                   
 Ca     40.078      ca_pbe_v1.uspp.F.UPF                               
 H      1.00794     h_pbe_v1.uspp.F.UPF                                
CELL_PARAMETERS {angstrom}        
             -1.699103914               1.699103914               1.699103914 
              1.699103914              -1.699103914               1.699103914 
              1.699103914               1.699103914       -1.6991039139999997 
ATOMIC_POSITIONS (crystal)       
Ca    0.0                            0.0                            0.0                            
H     0.5                            0.75                           0.25                           
H     0.49999999999999994            0.24999999999999994            0.75                           
H     0.24999999999999994            0.5                            0.75                           
H     0.75                           0.5                            0.25                           
H     0.75                           0.24999999999999997            0.5                            
H     0.24999999999999997            0.75                           0.5                            
K_POINTS {automatic}             
 8 8 8 0 0 0                  
